
     Program PWSCF v.6.7MaX starts on 13Sep2024 at 21:30:56 

     This program is part of the open-source Quantum ESPRESSO suite
     for quantum simulation of materials; please cite
         "P. Giannozzi et al., J. Phys.:Condens. Matter 21 395502 (2009);
         "P. Giannozzi et al., J. Phys.:Condens. Matter 29 465901 (2017);
          URL http://www.quantum-espresso.org", 
     in publications or presentations arising from this work. More details at
     http://www.quantum-espresso.org/quote

     Parallel version (MPI), running on     1 processors

     MPI processes distributed on     1 nodes
     Waiting for input...
     Reading input from standard input

     Current dimensions of program PWSCF are:
     Max number of different atomic species (ntypx) = 10
     Max number of k-points (npk) =  40000
     Max angular momentum in pseudopotentials (lmaxx) =  3

     Atomic positions and unit cell read from directory:
     ././cunipt.save/

     file Cu.upf: wavefunction(s)  4S 3D renormalized
     file Ni.upf: wavefunction(s)  3P 3D renormalized
     file Pt.upf: wavefunction(s)  6S 5D renormalized

     Subspace diagonalization in iterative solution of the eigenvalue problem:
     a serial algorithm will be used


     G-vector sticks info
     --------------------
     sticks:   dense  smooth     PW     G-vecs:    dense   smooth      PW
     Sum         967     967    301                20179    20179    3383



     bravais-lattice index     =            2
     lattice parameter (alat)  =      10.8900  a.u.
     unit-cell volume          =     322.8670 (a.u.)^3
     number of atoms/cell      =            3
     number of atomic types    =            3
     number of electrons       =        39.00
     number of Kohn-Sham states=           28
     kinetic-energy cutoff     =      60.0000  Ry
     charge density cutoff     =     240.0000  Ry
     Exchange-correlation= SLA  PW   PBX  PBC
                           (   1   4   3   4   0   0   0)

     celldm(1)=  10.890000  celldm(2)=   0.000000  celldm(3)=   0.000000
     celldm(4)=   0.000000  celldm(5)=   0.000000  celldm(6)=   0.000000

     crystal axes: (cart. coord. in units of alat)
               a(1) = (  -0.500000   0.000000   0.500000 )  
               a(2) = (   0.000000   0.500000   0.500000 )  
               a(3) = (  -0.500000   0.500000   0.000000 )  

     reciprocal axes: (cart. coord. in units 2 pi/alat)
               b(1) = ( -1.000000 -1.000000  1.000000 )  
               b(2) = (  1.000000  1.000000  1.000000 )  
               b(3) = ( -1.000000  1.000000 -1.000000 )  


     PseudoPot. # 1 for Cu read from file:
     ././Cu.upf
     MD5 check sum: cfffd1f38ee05704b3e17f46f1730a6f
     Pseudo is Projector augmented-wave + core cor, Zval = 11.0
     Generated using &quot;atomic&quot; code by A. Dal Corso  v.6.3
     Shape of augmentation charge: PSQ
     Using radial grid of 1199 points,  6 beta functions with: 
                l(1) =   0
                l(2) =   0
                l(3) =   1
                l(4) =   1
                l(5) =   2
                l(6) =   2
     Q(r) pseudized with 0 coefficients 


     PseudoPot. # 2 for Ni read from file:
     ././Ni.upf
     MD5 check sum: 6e86b733589c3ad8389697b807d86aa7
     Pseudo is Projector augmented-wave + core cor, Zval = 18.0
     Generated using &quot;atomic&quot; code by A. Dal Corso  v.6.3
     Shape of augmentation charge: PSQ
     Using radial grid of 1195 points,  6 beta functions with: 
                l(1) =   0
                l(2) =   0
                l(3) =   1
                l(4) =   1
                l(5) =   2
                l(6) =   2
     Q(r) pseudized with 0 coefficients 


     PseudoPot. # 3 for Pt read from file:
     ././Pt.upf
     MD5 check sum: c5224e9cd7a5e36e81f2def9f50bb494
     Pseudo is Projector augmented-wave + core cor, Zval = 10.0
     Generated using &quot;atomic&quot; code by A. Dal Corso  v.6.3
     Shape of augmentation charge: PSQ
     Using radial grid of 1277 points,  6 beta functions with: 
                l(1) =   0
                l(2) =   0
                l(3) =   1
                l(4) =   1
                l(5) =   2
                l(6) =   2
     Q(r) pseudized with 0 coefficients 


     atomic species   valence    mass     pseudopotential
        Cu            11.00    63.54600     Cu( 1.00)
        Ni            18.00    58.69300     Ni( 1.00)
        Pt            10.00   195.08000     Pt( 1.00)

     24 Sym. Ops. (no inversion) found


                                    s                        frac. trans.

      isym =  1     identity                                     

 cryst.   s( 1) = (     1          0          0      )
                  (     0          1          0      )
                  (     0          0          1      )

 cart.    s( 1) = (  1.0000000  0.0000000  0.0000000 )
                  (  0.0000000  1.0000000  0.0000000 )
                  (  0.0000000  0.0000000  1.0000000 )


      isym =  2     180 deg rotation - cart. axis [0,0,1]        

 cryst.   s( 2) = (     0          1         -1      )
                  (     1          0         -1      )
                  (     0          0         -1      )

 cart.    s( 2) = ( -1.0000000  0.0000000  0.0000000 )
                  (  0.0000000 -1.0000000  0.0000000 )
                  (  0.0000000  0.0000000  1.0000000 )


      isym =  3     180 deg rotation - cart. axis [0,1,0]        

 cryst.   s( 3) = (    -1          0          0      )
                  (    -1          0          1      )
                  (    -1          1          0      )

 cart.    s( 3) = ( -1.0000000  0.0000000  0.0000000 )
                  (  0.0000000  1.0000000  0.0000000 )
                  (  0.0000000  0.0000000 -1.0000000 )


      isym =  4     180 deg rotation - cart. axis [1,0,0]        

 cryst.   s( 4) = (     0         -1          1      )
                  (     0         -1          0      )
                  (     1         -1          0      )

 cart.    s( 4) = (  1.0000000  0.0000000  0.0000000 )
                  (  0.0000000 -1.0000000  0.0000000 )
                  (  0.0000000  0.0000000 -1.0000000 )


      isym =  5     120 deg rotation - cart. axis [-1,-1,-1]     

 cryst.   s( 5) = (    -1          0          1      )
                  (    -1          1          0      )
                  (    -1          0          0      )

 cart.    s( 5) = (  0.0000000  1.0000000  0.0000000 )
                  (  0.0000000  0.0000000  1.0000000 )
                  (  1.0000000  0.0000000  0.0000000 )


      isym =  6     120 deg rotation - cart. axis [-1,1,1]       

 cryst.   s( 6) = (     0          1          0      )
                  (     0          0          1      )
                  (     1          0          0      )

 cart.    s( 6) = (  0.0000000 -1.0000000  0.0000000 )
                  (  0.0000000  0.0000000  1.0000000 )
                  ( -1.0000000  0.0000000  0.0000000 )


      isym =  7     120 deg rotation - cart. axis [1,1,-1]       

 cryst.   s( 7) = (     1          0         -1      )
                  (     0          0         -1      )
                  (     0          1         -1      )

 cart.    s( 7) = (  0.0000000  1.0000000  0.0000000 )
                  (  0.0000000  0.0000000 -1.0000000 )
                  ( -1.0000000  0.0000000  0.0000000 )


      isym =  8     120 deg rotation - cart. axis [1,-1,1]       

 cryst.   s( 8) = (     0         -1          0      )
                  (     1         -1          0      )
                  (     0         -1          1      )

 cart.    s( 8) = (  0.0000000 -1.0000000  0.0000000 )
                  (  0.0000000  0.0000000 -1.0000000 )
                  (  1.0000000  0.0000000  0.0000000 )


      isym =  9     120 deg rotation - cart. axis [1,1,1]        

 cryst.   s( 9) = (     0          0         -1      )
                  (     0          1         -1      )
                  (     1          0         -1      )

 cart.    s( 9) = (  0.0000000  0.0000000  1.0000000 )
                  (  1.0000000  0.0000000  0.0000000 )
                  (  0.0000000  1.0000000  0.0000000 )


      isym = 10     120 deg rotation - cart. axis [-1,1,-1]      

 cryst.   s(10) = (    -1          1          0      )
                  (    -1          0          0      )
                  (    -1          0          1      )

 cart.    s(10) = (  0.0000000  0.0000000  1.0000000 )
                  ( -1.0000000  0.0000000  0.0000000 )
                  (  0.0000000 -1.0000000  0.0000000 )


      isym = 11     120 deg rotation - cart. axis [1,-1,-1]      

 cryst.   s(11) = (     0          0          1      )
                  (     1          0          0      )
                  (     0          1          0      )

 cart.    s(11) = (  0.0000000  0.0000000 -1.0000000 )
                  ( -1.0000000  0.0000000  0.0000000 )
                  (  0.0000000  1.0000000  0.0000000 )


      isym = 12     120 deg rotation - cart. axis [-1,-1,1]      

 cryst.   s(12) = (     1         -1          0      )
                  (     0         -1          1      )
                  (     0         -1          0      )

 cart.    s(12) = (  0.0000000  0.0000000 -1.0000000 )
                  (  1.0000000  0.0000000  0.0000000 )
                  (  0.0000000 -1.0000000  0.0000000 )


      isym = 13     inv. 180 deg rotation - cart. axis [1,1,0]   

 cryst.   s(13) = (     0          1          0      )
                  (     1          0          0      )
                  (     0          0          1      )

 cart.    s(13) = (  0.0000000 -1.0000000  0.0000000 )
                  ( -1.0000000  0.0000000  0.0000000 )
                  (  0.0000000  0.0000000  1.0000000 )


      isym = 14     inv. 180 deg rotation - cart. axis [1,-1,0]  

 cryst.   s(14) = (     1          0         -1      )
                  (     0          1         -1      )
                  (     0          0         -1      )

 cart.    s(14) = (  0.0000000  1.0000000  0.0000000 )
                  (  1.0000000  0.0000000  0.0000000 )
                  (  0.0000000  0.0000000  1.0000000 )


      isym = 15     inv.  90 deg rotation - cart. axis [0,0,-1]  

 cryst.   s(15) = (     0         -1          0      )
                  (     0         -1          1      )
                  (     1         -1          0      )

 cart.    s(15) = (  0.0000000 -1.0000000  0.0000000 )
                  (  1.0000000  0.0000000  0.0000000 )
                  (  0.0000000  0.0000000 -1.0000000 )


      isym = 16     inv.  90 deg rotation - cart. axis [0,0,1]   

 cryst.   s(16) = (    -1          0          1      )
                  (    -1          0          0      )
                  (    -1          1          0      )

 cart.    s(16) = (  0.0000000  1.0000000  0.0000000 )
                  ( -1.0000000  0.0000000  0.0000000 )
                  (  0.0000000  0.0000000 -1.0000000 )


      isym = 17     inv. 180 deg rotation - cart. axis [1,0,1]   

 cryst.   s(17) = (     1          0          0      )
                  (     0          0          1      )
                  (     0          1          0      )

 cart.    s(17) = (  0.0000000  0.0000000 -1.0000000 )
                  (  0.0000000  1.0000000  0.0000000 )
                  ( -1.0000000  0.0000000  0.0000000 )


      isym = 18     inv. 180 deg rotation - cart. axis [-1,0,1]  

 cryst.   s(18) = (    -1          0          0      )
                  (    -1          1          0      )
                  (    -1          0          1      )

 cart.    s(18) = (  0.0000000  0.0000000  1.0000000 )
                  (  0.0000000  1.0000000  0.0000000 )
                  (  1.0000000  0.0000000  0.0000000 )


      isym = 19     inv.  90 deg rotation - cart. axis [0,1,0]   

 cryst.   s(19) = (     0         -1          1      )
                  (     1         -1          0      )
                  (     0         -1          0      )

 cart.    s(19) = (  0.0000000  0.0000000 -1.0000000 )
                  (  0.0000000 -1.0000000  0.0000000 )
                  (  1.0000000  0.0000000  0.0000000 )


      isym = 20     inv.  90 deg rotation - cart. axis [0,-1,0]  

 cryst.   s(20) = (     0          1         -1      )
                  (     0          0         -1      )
                  (     1          0         -1      )

 cart.    s(20) = (  0.0000000  0.0000000  1.0000000 )
                  (  0.0000000 -1.0000000  0.0000000 )
                  ( -1.0000000  0.0000000  0.0000000 )


      isym = 21     inv. 180 deg rotation - cart. axis [0,1,1]   

 cryst.   s(21) = (     1         -1          0      )
                  (     0         -1          0      )
                  (     0         -1          1      )

 cart.    s(21) = (  1.0000000  0.0000000  0.0000000 )
                  (  0.0000000  0.0000000 -1.0000000 )
                  (  0.0000000 -1.0000000  0.0000000 )


      isym = 22     inv. 180 deg rotation - cart. axis [0,1,-1]  

 cryst.   s(22) = (     0          0          1      )
                  (     0          1          0      )
                  (     1          0          0      )

 cart.    s(22) = (  1.0000000  0.0000000  0.0000000 )
                  (  0.0000000  0.0000000  1.0000000 )
                  (  0.0000000  1.0000000  0.0000000 )


      isym = 23     inv.  90 deg rotation - cart. axis [-1,0,0]  

 cryst.   s(23) = (     0          0         -1      )
                  (     1          0         -1      )
                  (     0          1         -1      )

 cart.    s(23) = ( -1.0000000  0.0000000  0.0000000 )
                  (  0.0000000  0.0000000 -1.0000000 )
                  (  0.0000000  1.0000000  0.0000000 )


      isym = 24     inv.  90 deg rotation - cart. axis [1,0,0]   

 cryst.   s(24) = (    -1          1          0      )
                  (    -1          0          1      )
                  (    -1          0          0      )

 cart.    s(24) = ( -1.0000000  0.0000000  0.0000000 )
                  (  0.0000000  0.0000000  1.0000000 )
                  (  0.0000000 -1.0000000  0.0000000 )


     point group T_d (-43m) 
     there are  5 classes
     the character table:

       E     8C3   3C2   6S4   6s_d 
A_1    1.00  1.00  1.00  1.00  1.00
A_2    1.00  1.00  1.00 -1.00 -1.00
E      2.00 -1.00  2.00  0.00  0.00
T_1    3.00  0.00 -1.00  1.00 -1.00
T_2    3.00  0.00 -1.00 -1.00  1.00

     the symmetry operations in each class and the name of the first element:

     E        1
          identity                                               
     8C3      5    7    8    6   12    9   10   11
          120 deg rotation - cart. axis [-1,-1,-1]               
     3C2      2    3    4
          180 deg rotation - cart. axis [0,0,1]                  
     6S4     15   16   20   19   23   24
          inv.  90 deg rotation - cart. axis [0,0,-1]            
     6s_d    13   14   17   18   21   22
          inv. 180 deg rotation - cart. axis [1,1,0]             

   Cartesian axes

     site n.     atom                  positions (alat units)
         1           Cu  tau(   1) = (   0.0000000   0.0000000   0.0000000  )
         2           Ni  tau(   2) = (   0.5000000   0.5000000   0.5000000  )
         3           Pt  tau(   3) = (   0.2500000   0.2500000   0.2500000  )

   Crystallographic axes

     site n.     atom                  positions (cryst. coord.)
         1           Cu  tau(   1) = (  0.0000000  0.0000000  0.0000000  )
         2           Ni  tau(   2) = ( -0.5000000  1.5000000 -0.5000000  )
         3           Pt  tau(   3) = ( -0.2500000  0.7500000 -0.2500000  )

     number of k points=    72  Gaussian smearing, width (Ry)=  0.0050
                       cart. coord. in units 2pi/alat
        k(    1) = (   0.0000000   0.0000000   0.0000000), wk =   0.0011574
        k(    2) = (  -0.0833333   0.0833333  -0.0833333), wk =   0.0092593
        k(    3) = (  -0.1666667   0.1666667  -0.1666667), wk =   0.0092593
        k(    4) = (  -0.2500000   0.2500000  -0.2500000), wk =   0.0092593
        k(    5) = (  -0.3333333   0.3333333  -0.3333333), wk =   0.0092593
        k(    6) = (  -0.4166667   0.4166667  -0.4166667), wk =   0.0092593
        k(    7) = (   0.5000000  -0.5000000   0.5000000), wk =   0.0046296
        k(    8) = (   0.0000000   0.1666667   0.0000000), wk =   0.0069444
        k(    9) = (  -0.0833333   0.2500000  -0.0833333), wk =   0.0277778
        k(   10) = (  -0.1666667   0.3333333  -0.1666667), wk =   0.0277778
        k(   11) = (  -0.2500000   0.4166667  -0.2500000), wk =   0.0277778
        k(   12) = (  -0.3333333   0.5000000  -0.3333333), wk =   0.0277778
        k(   13) = (   0.5833333  -0.4166667   0.5833333), wk =   0.0277778
        k(   14) = (   0.5000000  -0.3333333   0.5000000), wk =   0.0277778
        k(   15) = (   0.4166667  -0.2500000   0.4166667), wk =   0.0277778
        k(   16) = (   0.3333333  -0.1666667   0.3333333), wk =   0.0277778
        k(   17) = (   0.2500000  -0.0833333   0.2500000), wk =   0.0277778
        k(   18) = (   0.1666667  -0.0000000   0.1666667), wk =   0.0138889
        k(   19) = (   0.0000000   0.3333333   0.0000000), wk =   0.0069444
        k(   20) = (  -0.0833333   0.4166667  -0.0833333), wk =   0.0277778
        k(   21) = (  -0.1666667   0.5000000  -0.1666667), wk =   0.0277778
        k(   22) = (  -0.2500000   0.5833333  -0.2500000), wk =   0.0277778
        k(   23) = (   0.6666667  -0.3333333   0.6666667), wk =   0.0277778
        k(   24) = (   0.5833333  -0.2500000   0.5833333), wk =   0.0277778
        k(   25) = (   0.5000000  -0.1666667   0.5000000), wk =   0.0277778
        k(   26) = (   0.4166667  -0.0833333   0.4166667), wk =   0.0277778
        k(   27) = (   0.3333333   0.0000000   0.3333333), wk =   0.0138889
        k(   28) = (   0.0000000   0.5000000   0.0000000), wk =   0.0069444
        k(   29) = (  -0.0833333   0.5833333  -0.0833333), wk =   0.0277778
        k(   30) = (  -0.1666667   0.6666667  -0.1666667), wk =   0.0277778
        k(   31) = (   0.7500000  -0.2500000   0.7500000), wk =   0.0277778
        k(   32) = (   0.6666667  -0.1666667   0.6666667), wk =   0.0277778
        k(   33) = (   0.5833333  -0.0833333   0.5833333), wk =   0.0277778
        k(   34) = (   0.5000000   0.0000000   0.5000000), wk =   0.0138889
        k(   35) = (   0.0000000   0.6666667   0.0000000), wk =   0.0069444
        k(   36) = (  -0.0833333   0.7500000  -0.0833333), wk =   0.0277778
        k(   37) = (   0.8333333  -0.1666667   0.8333333), wk =   0.0277778
        k(   38) = (   0.7500000  -0.0833333   0.7500000), wk =   0.0277778
        k(   39) = (   0.6666667  -0.0000000   0.6666667), wk =   0.0138889
        k(   40) = (   0.0000000   0.8333333   0.0000000), wk =   0.0069444
        k(   41) = (   0.9166667  -0.0833333   0.9166667), wk =   0.0277778
        k(   42) = (   0.8333333   0.0000000   0.8333333), wk =   0.0138889
        k(   43) = (   0.0000000  -1.0000000   0.0000000), wk =   0.0034722
        k(   44) = (  -0.1666667   0.3333333   0.0000000), wk =   0.0277778
        k(   45) = (  -0.2500000   0.4166667  -0.0833333), wk =   0.0555556
        k(   46) = (  -0.3333333   0.5000000  -0.1666667), wk =   0.0555556
        k(   47) = (   0.5833333  -0.4166667   0.7500000), wk =   0.0555556
        k(   48) = (   0.5000000  -0.3333333   0.6666667), wk =   0.0277778
        k(   49) = (  -0.1666667   0.5000000   0.0000000), wk =   0.0277778
        k(   50) = (  -0.2500000   0.5833333  -0.0833333), wk =   0.0555556
        k(   51) = (   0.6666667  -0.3333333   0.8333333), wk =   0.0555556
        k(   52) = (   0.5833333  -0.2500000   0.7500000), wk =   0.0555556
        k(   53) = (   0.5000000  -0.1666667   0.6666667), wk =   0.0555556
        k(   54) = (   0.4166667  -0.0833333   0.5833333), wk =   0.0555556
        k(   55) = (   0.3333333   0.0000000   0.5000000), wk =   0.0277778
        k(   56) = (  -0.1666667   0.6666667  -0.0000000), wk =   0.0277778
        k(   57) = (   0.7500000  -0.2500000   0.9166667), wk =   0.0555556
        k(   58) = (   0.6666667  -0.1666667   0.8333333), wk =   0.0555556
        k(   59) = (   0.5833333  -0.0833333   0.7500000), wk =   0.0555556
        k(   60) = (   0.5000000   0.0000000   0.6666667), wk =   0.0277778
        k(   61) = (   0.8333333  -0.1666667   1.0000000), wk =   0.0277778
        k(   62) = (   0.7500000  -0.0833333   0.9166667), wk =   0.0555556
        k(   63) = (   0.6666667   0.0000000   0.8333333), wk =   0.0277778
        k(   64) = (  -0.1666667  -1.0000000  -0.0000000), wk =   0.0138889
        k(   65) = (   0.6666667  -0.3333333   1.0000000), wk =   0.0277778
        k(   66) = (   0.5833333  -0.2500000   0.9166667), wk =   0.0555556
        k(   67) = (   0.5000000  -0.1666667   0.8333333), wk =   0.0277778
        k(   68) = (   0.6666667  -0.1666667   1.0000000), wk =   0.0277778
        k(   69) = (   0.5833333  -0.0833333   0.9166667), wk =   0.0555556
        k(   70) = (   0.5000000   0.0000000   0.8333333), wk =   0.0277778
        k(   71) = (  -0.3333333  -1.0000000   0.0000000), wk =   0.0138889
        k(   72) = (  -0.5000000  -1.0000000   0.0000000), wk =   0.0069444

                       cryst. coord.
        k(    1) = (   0.0000000   0.0000000   0.0000000), wk =   0.0011574
        k(    2) = (   0.0000000   0.0000000   0.0833333), wk =   0.0092593
        k(    3) = (   0.0000000   0.0000000   0.1666667), wk =   0.0092593
        k(    4) = (   0.0000000   0.0000000   0.2500000), wk =   0.0092593
        k(    5) = (   0.0000000   0.0000000   0.3333333), wk =   0.0092593
        k(    6) = (   0.0000000   0.0000000   0.4166667), wk =   0.0092593
        k(    7) = (   0.0000000   0.0000000  -0.5000000), wk =   0.0046296
        k(    8) = (   0.0000000   0.0833333   0.0833333), wk =   0.0069444
        k(    9) = (   0.0000000   0.0833333   0.1666667), wk =   0.0277778
        k(   10) = (   0.0000000   0.0833333   0.2500000), wk =   0.0277778
        k(   11) = (   0.0000000   0.0833333   0.3333333), wk =   0.0277778
        k(   12) = (   0.0000000   0.0833333   0.4166667), wk =   0.0277778
        k(   13) = (   0.0000000   0.0833333  -0.5000000), wk =   0.0277778
        k(   14) = (   0.0000000   0.0833333  -0.4166667), wk =   0.0277778
        k(   15) = (   0.0000000   0.0833333  -0.3333333), wk =   0.0277778
        k(   16) = (   0.0000000   0.0833333  -0.2500000), wk =   0.0277778
        k(   17) = (   0.0000000   0.0833333  -0.1666667), wk =   0.0277778
        k(   18) = (   0.0000000   0.0833333  -0.0833333), wk =   0.0138889
        k(   19) = (   0.0000000   0.1666667   0.1666667), wk =   0.0069444
        k(   20) = (   0.0000000   0.1666667   0.2500000), wk =   0.0277778
        k(   21) = (   0.0000000   0.1666667   0.3333333), wk =   0.0277778
        k(   22) = (   0.0000000   0.1666667   0.4166667), wk =   0.0277778
        k(   23) = (   0.0000000   0.1666667  -0.5000000), wk =   0.0277778
        k(   24) = (   0.0000000   0.1666667  -0.4166667), wk =   0.0277778
        k(   25) = (   0.0000000   0.1666667  -0.3333333), wk =   0.0277778
        k(   26) = (   0.0000000   0.1666667  -0.2500000), wk =   0.0277778
        k(   27) = (   0.0000000   0.1666667  -0.1666667), wk =   0.0138889
        k(   28) = (   0.0000000   0.2500000   0.2500000), wk =   0.0069444
        k(   29) = (   0.0000000   0.2500000   0.3333333), wk =   0.0277778
        k(   30) = (   0.0000000   0.2500000   0.4166667), wk =   0.0277778
        k(   31) = (   0.0000000   0.2500000  -0.5000000), wk =   0.0277778
        k(   32) = (   0.0000000   0.2500000  -0.4166667), wk =   0.0277778
        k(   33) = (   0.0000000   0.2500000  -0.3333333), wk =   0.0277778
        k(   34) = (   0.0000000   0.2500000  -0.2500000), wk =   0.0138889
        k(   35) = (   0.0000000   0.3333333   0.3333333), wk =   0.0069444
        k(   36) = (   0.0000000   0.3333333   0.4166667), wk =   0.0277778
        k(   37) = (   0.0000000   0.3333333  -0.5000000), wk =   0.0277778
        k(   38) = (   0.0000000   0.3333333  -0.4166667), wk =   0.0277778
        k(   39) = (   0.0000000   0.3333333  -0.3333333), wk =   0.0138889
        k(   40) = (   0.0000000   0.4166667   0.4166667), wk =   0.0069444
        k(   41) = (   0.0000000   0.4166667  -0.5000000), wk =   0.0277778
        k(   42) = (   0.0000000   0.4166667  -0.4166667), wk =   0.0138889
        k(   43) = (   0.0000000  -0.5000000  -0.5000000), wk =   0.0034722
        k(   44) = (   0.0833333   0.1666667   0.2500000), wk =   0.0277778
        k(   45) = (   0.0833333   0.1666667   0.3333333), wk =   0.0555556
        k(   46) = (   0.0833333   0.1666667   0.4166667), wk =   0.0555556
        k(   47) = (   0.0833333   0.1666667  -0.5000000), wk =   0.0555556
        k(   48) = (   0.0833333   0.1666667  -0.4166667), wk =   0.0277778
        k(   49) = (   0.0833333   0.2500000   0.3333333), wk =   0.0277778
        k(   50) = (   0.0833333   0.2500000   0.4166667), wk =   0.0555556
        k(   51) = (   0.0833333   0.2500000  -0.5000000), wk =   0.0555556
        k(   52) = (   0.0833333   0.2500000  -0.4166667), wk =   0.0555556
        k(   53) = (   0.0833333   0.2500000  -0.3333333), wk =   0.0555556
        k(   54) = (   0.0833333   0.2500000  -0.2500000), wk =   0.0555556
        k(   55) = (   0.0833333   0.2500000  -0.1666667), wk =   0.0277778
        k(   56) = (   0.0833333   0.3333333   0.4166667), wk =   0.0277778
        k(   57) = (   0.0833333   0.3333333  -0.5000000), wk =   0.0555556
        k(   58) = (   0.0833333   0.3333333  -0.4166667), wk =   0.0555556
        k(   59) = (   0.0833333   0.3333333  -0.3333333), wk =   0.0555556
        k(   60) = (   0.0833333   0.3333333  -0.2500000), wk =   0.0277778
        k(   61) = (   0.0833333   0.4166667  -0.5000000), wk =   0.0277778
        k(   62) = (   0.0833333   0.4166667  -0.4166667), wk =   0.0555556
        k(   63) = (   0.0833333   0.4166667  -0.3333333), wk =   0.0277778
        k(   64) = (   0.0833333  -0.5000000  -0.4166667), wk =   0.0138889
        k(   65) = (   0.1666667   0.3333333  -0.5000000), wk =   0.0277778
        k(   66) = (   0.1666667   0.3333333  -0.4166667), wk =   0.0555556
        k(   67) = (   0.1666667   0.3333333  -0.3333333), wk =   0.0277778
        k(   68) = (   0.1666667   0.4166667  -0.4166667), wk =   0.0277778
        k(   69) = (   0.1666667   0.4166667  -0.3333333), wk =   0.0555556
        k(   70) = (   0.1666667   0.4166667  -0.2500000), wk =   0.0277778
        k(   71) = (   0.1666667  -0.5000000  -0.3333333), wk =   0.0138889
        k(   72) = (   0.2500000  -0.5000000  -0.2500000), wk =   0.0069444

     Dense  grid:    20179 G-vectors     FFT dimensions: (  40,  40,  40)

     Dynamical RAM for                 wfc:       1.08 MB

     Dynamical RAM for     wfc (w. buffer):       1.08 MB

     Dynamical RAM for           str. fact:       0.92 MB

     Dynamical RAM for           local pot:       0.00 MB

     Dynamical RAM for          nlocal pot:       2.09 MB

     Dynamical RAM for                qrad:       3.73 MB

     Dynamical RAM for          rho,v,vnew:       2.39 MB

     Dynamical RAM for           G-vectors:       1.31 MB

     Dynamical RAM for          h,s,v(r/c):       0.14 MB

     Dynamical RAM for          <psi|beta>:       0.02 MB

     Dynamical RAM for                 psi:       2.17 MB

     Dynamical RAM for                hpsi:       2.17 MB

     Dynamical RAM for                spsi:       2.17 MB

     Dynamical RAM for      wfcinit/wfcrot:       2.18 MB

     Dynamical RAM for           addusdens:      57.58 MB

     Estimated static dynamical RAM per process >      15.20 MB

     Estimated max dynamical RAM per process >      72.78 MB

     Check: negative core charge=   -0.000002

     The potential is recalculated from file :
     ././cunipt.save/charge-density

     Starting wfcs are   28 randomized atomic wfcs
     Checking if some PAW data can be deallocated... 

     Band Structure Calculation
     Davidson diagonalization with overlap

     Computing kpt #:     1  of    72
     total cpu time spent up to now is        3.5 secs

     Computing kpt #:     2  of    72
     total cpu time spent up to now is        5.6 secs

     Computing kpt #:     3  of    72
     total cpu time spent up to now is        7.4 secs

     Computing kpt #:     4  of    72
     total cpu time spent up to now is        9.3 secs

     Computing kpt #:     5  of    72
     total cpu time spent up to now is       11.2 secs

     Computing kpt #:     6  of    72
     total cpu time spent up to now is       13.1 secs

     Computing kpt #:     7  of    72
     total cpu time spent up to now is       15.0 secs

     Computing kpt #:     8  of    72
     total cpu time spent up to now is       17.1 secs

     Computing kpt #:     9  of    72
     total cpu time spent up to now is       19.1 secs

     Computing kpt #:    10  of    72
     total cpu time spent up to now is       20.9 secs

     Computing kpt #:    11  of    72
     total cpu time spent up to now is       22.9 secs

     Computing kpt #:    12  of    72
     total cpu time spent up to now is       25.0 secs

     Computing kpt #:    13  of    72
     total cpu time spent up to now is       26.9 secs

     Computing kpt #:    14  of    72
     total cpu time spent up to now is       29.1 secs

     Computing kpt #:    15  of    72
     total cpu time spent up to now is       30.9 secs

     Computing kpt #:    16  of    72
     total cpu time spent up to now is       33.1 secs

     Computing kpt #:    17  of    72
     total cpu time spent up to now is       35.2 secs

     Computing kpt #:    18  of    72
     total cpu time spent up to now is       37.5 secs

     Computing kpt #:    19  of    72
     total cpu time spent up to now is       39.2 secs

     Computing kpt #:    20  of    72
     total cpu time spent up to now is       40.9 secs

     Computing kpt #:    21  of    72
     total cpu time spent up to now is       42.6 secs

     Computing kpt #:    22  of    72
     total cpu time spent up to now is       44.3 secs

     Computing kpt #:    23  of    72
     total cpu time spent up to now is       46.0 secs

     Computing kpt #:    24  of    72
     total cpu time spent up to now is       48.0 secs

     Computing kpt #:    25  of    72
     total cpu time spent up to now is       50.0 secs

     Computing kpt #:    26  of    72
     total cpu time spent up to now is       51.9 secs

     Computing kpt #:    27  of    72
     total cpu time spent up to now is       53.6 secs

     Computing kpt #:    28  of    72
     total cpu time spent up to now is       55.3 secs

     Computing kpt #:    29  of    72
     total cpu time spent up to now is       57.0 secs

     Computing kpt #:    30  of    72
     total cpu time spent up to now is       58.8 secs

     Computing kpt #:    31  of    72
     total cpu time spent up to now is       60.5 secs

     Computing kpt #:    32  of    72
     total cpu time spent up to now is       62.4 secs

     Computing kpt #:    33  of    72
     total cpu time spent up to now is       64.4 secs

     Computing kpt #:    34  of    72
     total cpu time spent up to now is       66.2 secs

     Computing kpt #:    35  of    72
     total cpu time spent up to now is       67.8 secs

     Computing kpt #:    36  of    72
     total cpu time spent up to now is       69.8 secs

     Computing kpt #:    37  of    72
     total cpu time spent up to now is       72.0 secs

     Computing kpt #:    38  of    72
     total cpu time spent up to now is       73.9 secs

     Computing kpt #:    39  of    72
     total cpu time spent up to now is       76.0 secs

     Computing kpt #:    40  of    72
     total cpu time spent up to now is       78.1 secs

     Computing kpt #:    41  of    72
     total cpu time spent up to now is       80.2 secs

     Computing kpt #:    42  of    72
     total cpu time spent up to now is       82.4 secs

     Computing kpt #:    43  of    72
     total cpu time spent up to now is       84.3 secs

     Computing kpt #:    44  of    72
     total cpu time spent up to now is       86.2 secs

     Computing kpt #:    45  of    72
     total cpu time spent up to now is       88.1 secs

     Computing kpt #:    46  of    72
     total cpu time spent up to now is       89.9 secs

     Computing kpt #:    47  of    72
     total cpu time spent up to now is       91.8 secs

     Computing kpt #:    48  of    72
     total cpu time spent up to now is       93.7 secs

     Computing kpt #:    49  of    72
     total cpu time spent up to now is       95.6 secs

     Computing kpt #:    50  of    72
     total cpu time spent up to now is       97.6 secs

     Computing kpt #:    51  of    72
     total cpu time spent up to now is       99.6 secs

     Computing kpt #:    52  of    72
     total cpu time spent up to now is      101.7 secs

     Computing kpt #:    53  of    72
     total cpu time spent up to now is      104.1 secs

     Computing kpt #:    54  of    72
     total cpu time spent up to now is      106.3 secs

     Computing kpt #:    55  of    72
     total cpu time spent up to now is      108.5 secs

     Computing kpt #:    56  of    72
     total cpu time spent up to now is      110.6 secs

     Computing kpt #:    57  of    72
     total cpu time spent up to now is      112.8 secs

     Computing kpt #:    58  of    72
     total cpu time spent up to now is      114.8 secs

     Computing kpt #:    59  of    72
     total cpu time spent up to now is      116.6 secs

     Computing kpt #:    60  of    72
     total cpu time spent up to now is      118.7 secs

     Computing kpt #:    61  of    72
     total cpu time spent up to now is      120.9 secs

     Computing kpt #:    62  of    72
     total cpu time spent up to now is      122.9 secs

     Computing kpt #:    63  of    72
     total cpu time spent up to now is      124.9 secs

     Computing kpt #:    64  of    72
     total cpu time spent up to now is      127.2 secs

     Computing kpt #:    65  of    72
     total cpu time spent up to now is      129.4 secs

     Computing kpt #:    66  of    72
     total cpu time spent up to now is      131.5 secs

     Computing kpt #:    67  of    72
     total cpu time spent up to now is      133.6 secs

     Computing kpt #:    68  of    72
     total cpu time spent up to now is      135.6 secs

     Computing kpt #:    69  of    72
     total cpu time spent up to now is      137.6 secs

     Computing kpt #:    70  of    72
     total cpu time spent up to now is      139.6 secs

     Computing kpt #:    71  of    72
     total cpu time spent up to now is      141.6 secs

     Computing kpt #:    72  of    72
     total cpu time spent up to now is      143.7 secs

     ethr =  2.56E-09,  avg # of iterations = 43.2

     total cpu time spent up to now is      143.7 secs

     End of band structure calculation

          k = 0.0000 0.0000 0.0000 (  2637 PWs)   bands (ev):

   -91.2439 -51.6347 -51.6347 -51.6347   3.7383   7.5536   7.5536   7.7453
     7.7453   7.7453   8.9947   8.9947   8.9947  10.4219  10.4219  10.7729
    10.7729  10.7729  11.3073  11.3073  20.0189  21.1511  21.1511  21.1511
    21.2262  21.2262  21.2262  22.0925

     occupation numbers 
     1.0000   1.0000   1.0000   1.0000   1.0000   1.0000   1.0000   1.0000
     1.0000   1.0000   1.0000   1.0000   1.0000   1.0000   1.0000   1.0000
     1.0000   1.0000   0.9992   0.9992   0.0000   0.0000   0.0000   0.0000
     0.0000   0.0000   0.0000   0.0000

          k =-0.0833 0.0833-0.0833 (  2556 PWs)   bands (ev):

   -91.2432 -51.6344 -51.6344 -51.6344   3.8431   7.5734   7.5734   7.7204
     7.7462   7.7462   9.0059   9.0165   9.0165  10.4089  10.4089  10.6964
    10.7617  10.7617  11.3045  11.3045  18.9370  20.2381  20.3183  20.3183
    21.8671  22.0327  22.0327  22.4305

     occupation numbers 
     1.0000   1.0000   1.0000   1.0000   1.0000   1.0000   1.0000   1.0000
     1.0000   1.0000   1.0000   1.0000   1.0000   1.0000   1.0000   1.0000
     1.0000   1.0000   0.9994   0.9994   0.0000   0.0000   0.0000   0.0000
     0.0000   0.0000   0.0000   0.0000

          k =-0.1667 0.1667-0.1667 (  2559 PWs)   bands (ev):

   -91.2432 -51.6346 -51.6344 -51.6344   4.1479   7.6137   7.6137   7.6650
     7.7661   7.7661   9.0162   9.0779   9.0779  10.3502  10.3502  10.5000
    10.7464  10.7464  11.3023  11.3023  16.9163  19.5022  19.5022  20.2161
    21.8658  22.0816  22.0816  22.7550

     occupation numbers 
     1.0000   1.0000   1.0000   1.0000   1.0000   1.0000   1.0000   1.0000
     1.0000   1.0000   1.0000   1.0000   1.0000   1.0000   1.0000   1.0000
     1.0000   1.0000   0.9995   0.9995   0.0000   0.0000   0.0000   0.0000
     0.0000   0.0000   0.0000   0.0000

          k =-0.2500 0.2500-0.2500 (  2548 PWs)   bands (ev):

   -91.2431 -51.6346 -51.6345 -51.6345   4.6257   7.6211   7.6261   7.6261
     7.8472   7.8472   8.9675   9.1672   9.1672  10.2163  10.2163  10.2689
    10.7612  10.7612  11.3083  11.3083  15.0633  18.7726  18.7726  20.1281
    21.6930  21.8271  21.8271  23.6943

     occupation numbers 
     1.0000   1.0000   1.0000   1.0000   1.0000   1.0000   1.0000   1.0000
     1.0000   1.0000   1.0000   1.0000   1.0000   1.0000   1.0000   1.0000
     1.0000   1.0000   0.9992   0.9992   0.0000   0.0000   0.0000   0.0000
     0.0000   0.0000   0.0000   0.0000

          k =-0.3333 0.3333-0.3333 (  2545 PWs)   bands (ev):

   -91.2430 -51.6347 -51.6345 -51.6345   5.2110   7.6131   7.6131   7.6316
     7.9716   7.9716   8.8005   9.2687   9.2687  10.0266  10.0266  10.0967
    10.8056  10.8056  11.3204  11.3204  13.5056  18.1824  18.1824  19.9999
    21.5498  21.6079  21.6079  25.0597

     occupation numbers 
     1.0000   1.0000   1.0000   1.0000   1.0000   1.0000   1.0000   1.0000
     1.0000   1.0000   1.0000   1.0000   1.0000   1.0000   1.0000   1.0000
     1.0000   1.0000   0.9981   0.9981   0.0000   0.0000   0.0000   0.0000
     0.0000   0.0000   0.0000   0.0000

          k =-0.4167 0.4167-0.4167 (  2521 PWs)   bands (ev):

   -91.2428 -51.6346 -51.6344 -51.6344   5.7546   7.5984   7.5984   7.7393
     8.0841   8.0841   8.5141   9.3668   9.3668   9.8393   9.8393  10.0125
    10.8514  10.8514  11.3315  11.3315  12.4097  17.7932  17.7932  19.8992
    21.4650  21.4685  21.4685  26.4642

     occupation numbers 
     1.0000   1.0000   1.0000   1.0000   1.0000   1.0000   1.0000   1.0000
     1.0000   1.0000   1.0000   1.0000   1.0000   1.0000   1.0000   1.0000
     1.0000   1.0000   0.9961   0.9961   0.0000   0.0000   0.0000   0.0000
     0.0000   0.0000   0.0000   0.0000

          k = 0.5000-0.5000 0.5000 (  2512 PWs)   bands (ev):

   -91.2427 -51.6347 -51.6344 -51.6344   5.9920   7.5926   7.5926   7.8869
     8.1305   8.1305   8.2819   9.4207   9.4207   9.7468   9.7468   9.9889
    10.8707  10.8707  11.3358  11.3358  12.0029  17.6565  17.6565  19.8623
    21.4212  21.4212  21.4370  26.9923

     occupation numbers 
     1.0000   1.0000   1.0000   1.0000   1.0000   1.0000   1.0000   1.0000
     1.0000   1.0000   1.0000   1.0000   1.0000   1.0000   1.0000   1.0000
     1.0000   1.0000   0.9949   0.9949   0.0000   0.0000   0.0000   0.0000
     0.0000   0.0000   0.0000   0.0000

          k = 0.0000 0.1667 0.0000 (  2577 PWs)   bands (ev):

   -91.2434 -51.6345 -51.6345 -51.6345   3.8780   7.5502   7.6090   7.6938
     7.7540   7.7540   8.9395   9.0620   9.0620  10.4059  10.4061  10.7146
    10.7400  10.7400  11.2628  11.3354  19.4434  19.4434  19.6657  20.1641
    21.5143  21.9150  22.6495  22.6495

     occupation numbers 
     1.0000   1.0000   1.0000   1.0000   1.0000   1.0000   1.0000   1.0000
     1.0000   1.0000   1.0000   1.0000   1.0000   1.0000   1.0000   1.0000
     1.0000   1.0000   1.0000   0.9951   0.0000   0.0000   0.0000   0.0000
     0.0000   0.0000   0.0000   0.0000

          k =-0.0833 0.2500-0.0833 (  2558 PWs)   bands (ev):

   -91.2432 -51.6346 -51.6344 -51.6344   4.1172   7.5492   7.6458   7.6673
     7.7597   7.7762   8.9127   9.1308   9.1454  10.3612  10.3712  10.5714
    10.7140  10.7403  11.2245  11.3514  17.5682  18.6404  19.4297  20.3091
    21.1081  22.0023  22.7996  22.8273

     occupation numbers 
     1.0000   1.0000   1.0000   1.0000   1.0000   1.0000   1.0000   1.0000
     1.0000   1.0000   1.0000   1.0000   1.0000   1.0000   1.0000   1.0000
     1.0000   1.0000   1.0000   0.9877   0.0000   0.0000   0.0000   0.0000
     0.0000   0.0000   0.0000   0.0000

          k =-0.1667 0.3333-0.1667 (  2556 PWs)   bands (ev):

   -91.2432 -51.6346 -51.6345 -51.6345   4.5404   7.5176   7.6457   7.6811
     7.7828   7.8680   8.9204   9.1812   9.2514  10.2289  10.2862  10.3516
    10.7312  10.7506  11.2081  11.3626  15.6513  17.9662  18.8183  20.0621
    21.8299  21.9141  22.6852  22.7217

     occupation numbers 
     1.0000   1.0000   1.0000   1.0000   1.0000   1.0000   1.0000   1.0000
     1.0000   1.0000   1.0000   1.0000   1.0000   1.0000   1.0000   1.0000
     1.0000   1.0000   1.0000   0.9781   0.0000   0.0000   0.0000   0.0000
     0.0000   0.0000   0.0000   0.0000

          k =-0.2500 0.4167-0.2500 (  2535 PWs)   bands (ev):

   -91.2430 -51.6346 -51.6345 -51.6344   5.0978   7.4771   7.6617   7.6726
     7.8553   8.0008   8.8973   9.2114   9.3607  10.0230  10.1290  10.1721
    10.7798  10.7881  11.2223  11.3697  13.9793  17.4734  18.1010  19.8065
    21.9027  22.3030  22.4266  23.2284

     occupation numbers 
     1.0000   1.0000   1.0000   1.0000   1.0000   1.0000   1.0000   1.0000
     1.0000   1.0000   1.0000   1.0000   1.0000   1.0000   1.0000   1.0000
     1.0000   1.0000   1.0000   0.9691   0.0000   0.0000   0.0000   0.0000
     0.0000   0.0000   0.0000   0.0000

          k =-0.3333 0.5000-0.3333 (  2527 PWs)   bands (ev):

   -91.2429 -51.6346 -51.6344 -51.6344   5.6746   7.4682   7.6370   7.7276
     7.9439   8.1180   8.7600   9.2758   9.4511   9.8142   9.9628  10.0553
    10.8277  10.8353  11.2681  11.3632  12.6958  17.2195  17.4562  19.6812
    21.8991  22.1352  22.1901  24.6105

     occupation numbers 
     1.0000   1.0000   1.0000   1.0000   1.0000   1.0000   1.0000   1.0000
     1.0000   1.0000   1.0000   1.0000   1.0000   1.0000   1.0000   1.0000
     1.0000   1.0000   1.0000   0.9774   0.0000   0.0000   0.0000   0.0000
     0.0000   0.0000   0.0000   0.0000

          k = 0.5833-0.4167 0.5833 (  2523 PWs)   bands (ev):

   -91.2428 -51.6347 -51.6344 -51.6344   6.0395   7.4865   7.6178   7.8469
     7.9621   8.1674   8.5995   9.3782   9.4485   9.7375   9.8169  10.0050
    10.8425  10.8768  11.3282  11.3329  12.0231  17.0001  17.2514  19.6683
    21.7425  21.8750  22.3322  26.0492

     occupation numbers 
     1.0000   1.0000   1.0000   1.0000   1.0000   1.0000   1.0000   1.0000
     1.0000   1.0000   1.0000   1.0000   1.0000   1.0000   1.0000   1.0000
     1.0000   1.0000   0.9968   0.9958   0.0000   0.0000   0.0000   0.0000
     0.0000   0.0000   0.0000   0.0000

          k = 0.5000-0.3333 0.5000 (  2528 PWs)   bands (ev):

   -91.2429 -51.6347 -51.6344 -51.6344   5.9567   7.5068   7.6096   7.7932
     8.0051   8.1171   8.6499   9.3389   9.4592   9.7556   9.8482  10.0122
    10.8170  10.8908  11.2777  11.3721  12.1718  16.7990  17.5825  19.7633
    21.5820  21.6796  22.6022  26.2922

     occupation numbers 
     1.0000   1.0000   1.0000   1.0000   1.0000   1.0000   1.0000   1.0000
     1.0000   1.0000   1.0000   1.0000   1.0000   1.0000   1.0000   1.0000
     1.0000   1.0000   0.9999   0.9655   0.0000   0.0000   0.0000   0.0000
     0.0000   0.0000   0.0000   0.0000

          k = 0.4167-0.2500 0.4167 (  2529 PWs)   bands (ev):

   -91.2429 -51.6347 -51.6344 -51.6344   5.4880   7.5177   7.6130   7.6960
     7.9925   7.9974   8.8402   9.2297   9.4183   9.8787  10.0227  10.0735
    10.7801  10.8567  11.2271  11.3868  13.0814  16.8709  18.1842  19.9688
    21.4695  21.5668  22.9095  24.8478

     occupation numbers 
     1.0000   1.0000   1.0000   1.0000   1.0000   1.0000   1.0000   1.0000
     1.0000   1.0000   1.0000   1.0000   1.0000   1.0000   1.0000   1.0000
     1.0000   1.0000   1.0000   0.9348   0.0000   0.0000   0.0000   0.0000
     0.0000   0.0000   0.0000   0.0000

          k = 0.3333-0.1667 0.3333 (  2526 PWs)   bands (ev):

   -91.2429 -51.6345 -51.6344 -51.6343   4.8994   7.5407   7.6214   7.6757
     7.8539   7.9152   8.9732   9.1341   9.3240  10.0864  10.1971  10.2050
    10.7525  10.7892  11.2086  11.3787  14.5150  17.1845  18.9983  20.2831
    21.4017  21.5412  23.1465  23.5101

     occupation numbers 
     1.0000   1.0000   1.0000   1.0000   1.0000   1.0000   1.0000   1.0000
     1.0000   1.0000   1.0000   1.0000   1.0000   1.0000   1.0000   1.0000
     1.0000   1.0000   1.0000   0.9536   0.0000   0.0000   0.0000   0.0000
     0.0000   0.0000   0.0000   0.0000

          k = 0.2500-0.0833 0.2500 (  2559 PWs)   bands (ev):

   -91.2432 -51.6347 -51.6345 -51.6344   4.3791   7.5924   7.6142   7.6712
     7.7608   7.8237   9.0051   9.0587   9.2224  10.2719  10.3245  10.4045
    10.7325  10.7479  11.2218  11.3597  16.2811  17.6779  19.9502  20.6476
    21.3598  21.5581  22.4739  22.8733

     occupation numbers 
     1.0000   1.0000   1.0000   1.0000   1.0000   1.0000   1.0000   1.0000
     1.0000   1.0000   1.0000   1.0000   1.0000   1.0000   1.0000   1.0000
     1.0000   1.0000   1.0000   0.9810   0.0000   0.0000   0.0000   0.0000
     0.0000   0.0000   0.0000   0.0000

          k = 0.1667-0.0000 0.1667 (  2555 PWs)   bands (ev):

   -91.2432 -51.6345 -51.6344 -51.6344   4.0146   7.5822   7.6158   7.6794
     7.7398   7.7700   8.9958   9.0162   9.1157  10.3752  10.3881  10.5999
    10.7263  10.7598  11.2595  11.3361  18.2173  18.3249  20.6593  20.8601
    21.3463  21.5218  22.1175  22.3325

     occupation numbers 
     1.0000   1.0000   1.0000   1.0000   1.0000   1.0000   1.0000   1.0000
     1.0000   1.0000   1.0000   1.0000   1.0000   1.0000   1.0000   1.0000
     1.0000   1.0000   1.0000   0.9948   0.0000   0.0000   0.0000   0.0000
     0.0000   0.0000   0.0000   0.0000

          k = 0.0000 0.3333 0.0000 (  2569 PWs)   bands (ev):

   -91.2433 -51.6347 -51.6345 -51.6345   4.2898   7.4680   7.5994   7.7717
     7.7790   7.7790   8.8165   9.2516   9.2516  10.3495  10.3529  10.6192
    10.6660  10.6660  11.1424  11.3712  17.7996  17.7996  18.4520  19.3067
    20.3499  23.2662  23.3279  23.3279

     occupation numbers 
     1.0000   1.0000   1.0000   1.0000   1.0000   1.0000   1.0000   1.0000
     1.0000   1.0000   1.0000   1.0000   1.0000   1.0000   1.0000   1.0000
     1.0000   1.0000   1.0000   0.9669   0.0000   0.0000   0.0000   0.0000
     0.0000   0.0000   0.0000   0.0000

          k =-0.0833 0.4167-0.0833 (  2548 PWs)   bands (ev):

   -91.2431 -51.6346 -51.6345 -51.6344   4.6524   7.3758   7.5891   7.7665
     7.7918   7.9159   8.7869   9.3544   9.3757  10.2456  10.3020  10.4638
    10.6709  10.7044  11.0889  11.3795  16.1871  17.0844  17.8027  19.4670
    20.3317  23.3892  23.5940  23.8534

     occupation numbers 
     1.0000   1.0000   1.0000   1.0000   1.0000   1.0000   1.0000   1.0000
     1.0000   1.0000   1.0000   1.0000   1.0000   1.0000   1.0000   1.0000
     1.0000   1.0000   1.0000   0.9519   0.0000   0.0000   0.0000   0.0000
     0.0000   0.0000   0.0000   0.0000

          k =-0.1667 0.5000-0.1667 (  2526 PWs)   bands (ev):

   -91.2429 -51.6346 -51.6344 -51.6344   5.1665   7.2944   7.6184   7.7429
     7.8079   8.0742   8.8165   9.4047   9.4947  10.0288  10.2006  10.2857
    10.7394  10.7566  11.0965  11.3840  14.4615  16.5640  17.0520  19.4426
    21.2675  23.2774  23.5308  23.8605

     occupation numbers 
     1.0000   1.0000   1.0000   1.0000   1.0000   1.0000   1.0000   1.0000
     1.0000   1.0000   1.0000   1.0000   1.0000   1.0000   1.0000   1.0000
     1.0000   1.0000   1.0000   0.9417   0.0000   0.0000   0.0000   0.0000
     0.0000   0.0000   0.0000   0.0000

          k =-0.2500 0.5833-0.2500 (  2531 PWs)   bands (ev):

   -91.2429 -51.6347 -51.6345 -51.6344   5.7425   7.2493   7.6718   7.7120
     7.8381   8.2137   8.8704   9.4025   9.5912   9.7783  10.0572  10.1671
    10.7768  10.8205  11.1893  11.3779  13.0232  16.3075  16.3313  19.3985
    22.5153  23.0524  23.2542  23.9326

     occupation numbers 
     1.0000   1.0000   1.0000   1.0000   1.0000   1.0000   1.0000   1.0000
     1.0000   1.0000   1.0000   1.0000   1.0000   1.0000   1.0000   1.0000
     1.0000   1.0000   1.0000   0.9552   0.0000   0.0000   0.0000   0.0000
     0.0000   0.0000   0.0000   0.0000

          k = 0.6667-0.3333 0.6667 (  2524 PWs)   bands (ev):

   -91.2428 -51.6347 -51.6344 -51.6344   6.1862   7.2651   7.6815   7.7447
     7.8574   8.2819   8.9142   9.4061   9.5041   9.7347   9.9468  10.0697
    10.7627  10.8967  11.3141  11.3485  12.0880  15.7459  16.3710  19.4315
    22.6620  22.9112  23.6585  24.5751

     occupation numbers 
     1.0000   1.0000   1.0000   1.0000   1.0000   1.0000   1.0000   1.0000
     1.0000   1.0000   1.0000   1.0000   1.0000   1.0000   1.0000   1.0000
     1.0000   1.0000   0.9987   0.9895   0.0000   0.0000   0.0000   0.0000
     0.0000   0.0000   0.0000   0.0000

          k = 0.5833-0.2500 0.5833 (  2524 PWs)   bands (ev):

   -91.2428 -51.6347 -51.6344 -51.6344   6.2411   7.3368   7.6588   7.7690
     7.8682   8.2323   8.9727   9.3411   9.4734   9.8311   9.8562  10.0413
    10.7319  10.9243  11.2606  11.4002  11.9900  15.3778  16.7661  19.5549
    22.3706  22.5861  24.1187  25.9288

     occupation numbers 
     1.0000   1.0000   1.0000   1.0000   1.0000   1.0000   1.0000   1.0000
     1.0000   1.0000   1.0000   1.0000   1.0000   1.0000   1.0000   1.0000
     1.0000   1.0000   1.0000   0.8913   0.0000   0.0000   0.0000   0.0000
     0.0000   0.0000   0.0000   0.0000

          k = 0.5000-0.1667 0.5000 (  2534 PWs)   bands (ev):

   -91.2429 -51.6346 -51.6345 -51.6344   5.8847   7.3925   7.6476   7.6999
     7.9255   8.0865   9.0472   9.2304   9.5617   9.7667  10.0085  10.0750
    10.7086  10.9203  11.1338  11.4328  12.7412  15.2823  17.4477  19.7776
    22.1376  22.3195  24.1836  25.1932

     occupation numbers 
     1.0000   1.0000   1.0000   1.0000   1.0000   1.0000   1.0000   1.0000
     1.0000   1.0000   1.0000   1.0000   1.0000   1.0000   1.0000   1.0000
     1.0000   1.0000   1.0000   0.7108   0.0000   0.0000   0.0000   0.0000
     0.0000   0.0000   0.0000   0.0000

          k = 0.4167-0.0833 0.4167 (  2542 PWs)   bands (ev):

   -91.2430 -51.6346 -51.6345 -51.6345   5.3303   7.4392   7.6456   7.6824
     7.9196   7.9286   9.0747   9.1465   9.4982   9.9088  10.1546  10.1577
    10.7067  10.8694  11.0845  11.4271  14.0380  15.4662  18.3335  20.1085
    21.9462  22.1142  23.2588  23.9996

     occupation numbers 
     1.0000   1.0000   1.0000   1.0000   1.0000   1.0000   1.0000   1.0000
     1.0000   1.0000   1.0000   1.0000   1.0000   1.0000   1.0000   1.0000
     1.0000   1.0000   1.0000   0.7500   0.0000   0.0000   0.0000   0.0000
     0.0000   0.0000   0.0000   0.0000

          k = 0.3333 0.0000 0.3333 (  2545 PWs)   bands (ev):

   -91.2430 -51.6346 -51.6345 -51.6344   4.7904   7.5104   7.6389   7.6843
     7.7989   7.8860   9.0427   9.0852   9.3693  10.1162  10.2662  10.2749
    10.7264  10.7755  11.1368  11.4001  15.5311  16.0198  19.3003  20.5361
    21.5904  21.8616  22.5200  23.0845

     occupation numbers 
     1.0000   1.0000   1.0000   1.0000   1.0000   1.0000   1.0000   1.0000
     1.0000   1.0000   1.0000   1.0000   1.0000   1.0000   1.0000   1.0000
     1.0000   1.0000   1.0000   0.8915   0.0000   0.0000   0.0000   0.0000
     0.0000   0.0000   0.0000   0.0000

          k = 0.0000 0.5000 0.0000 (  2525 PWs)   bands (ev):

   -91.2429 -51.6346 -51.6343 -51.6343   4.9541   7.2359   7.5315   7.8161
     7.8161   8.0313   8.6998   9.5102   9.5102  10.2235  10.2872  10.5504
    10.6326  10.6326  10.9888  11.3827  16.2950  16.2950  16.4353  19.0686
    19.6990  24.3397  24.3397  25.0062

     occupation numbers 
     1.0000   1.0000   1.0000   1.0000   1.0000   1.0000   1.0000   1.0000
     1.0000   1.0000   1.0000   1.0000   1.0000   1.0000   1.0000   1.0000
     1.0000   1.0000   1.0000   0.9448   0.0000   0.0000   0.0000   0.0000
     0.0000   0.0000   0.0000   0.0000

          k =-0.0833 0.5833-0.0833 (  2537 PWs)   bands (ev):

   -91.2430 -51.6347 -51.6344 -51.6344   5.4157   7.1205   7.5095   7.8175
     7.8310   8.1992   8.6849   9.6045   9.6238  10.0523  10.2426  10.4338
    10.6991  10.7277  10.9680  11.3881  14.8148  15.6900  15.8729  19.1812
    19.8853  24.5739  24.6887  25.6565

     occupation numbers 
     1.0000   1.0000   1.0000   1.0000   1.0000   1.0000   1.0000   1.0000
     1.0000   1.0000   1.0000   1.0000   1.0000   1.0000   1.0000   1.0000
     1.0000   1.0000   1.0000   0.9311   0.0000   0.0000   0.0000   0.0000
     0.0000   0.0000   0.0000   0.0000

          k =-0.1667 0.6667-0.1667 (  2539 PWs)   bands (ev):

   -91.2430 -51.6347 -51.6345 -51.6345   5.9666   7.0478   7.5280   7.7941
     7.8370   8.3663   8.7369   9.6442   9.6971   9.7987  10.1516  10.3216
    10.7102  10.8461  11.1176  11.3996  13.3559  15.1676  15.3586  19.2118
    20.9006  24.3688  24.5626  25.8000

     occupation numbers 
     1.0000   1.0000   1.0000   1.0000   1.0000   1.0000   1.0000   1.0000
     1.0000   1.0000   1.0000   1.0000   1.0000   1.0000   1.0000   1.0000
     1.0000   1.0000   1.0000   0.8936   0.0000   0.0000   0.0000   0.0000
     0.0000   0.0000   0.0000   0.0000

          k = 0.7500-0.2500 0.7500 (  2530 PWs)   bands (ev):

   -91.2429 -51.6347 -51.6344 -51.6344   6.4360   7.0572   7.5810   7.7590
     7.8251   8.4730   8.8514   9.4999   9.6671   9.8085  10.0537  10.2238
    10.6613  10.9633  11.3117  11.4250  12.2155  14.5186  15.3817  19.2549
    22.2778  23.9902  24.1914  25.9516

     occupation numbers 
     1.0000   1.0000   1.0000   1.0000   1.0000   1.0000   1.0000   1.0000
     1.0000   1.0000   1.0000   1.0000   1.0000   1.0000   1.0000   1.0000
     1.0000   1.0000   0.9989   0.7638   0.0000   0.0000   0.0000   0.0000
     0.0000   0.0000   0.0000   0.0000

          k = 0.6667-0.1667 0.6667 (  2535 PWs)   bands (ev):

   -91.2429 -51.6348 -51.6345 -51.6344   6.5498   7.2024   7.6550   7.7227
     7.7761   8.4410   9.0317   9.3225   9.6653   9.8936   9.9783  10.1273
    10.6183  10.9599  11.3743  11.4300  11.8792  14.0449  15.7799  19.3623
    23.5680  23.7567  23.8251  25.9385

     occupation numbers 
     1.0000   1.0000   1.0000   1.0000   1.0000   1.0000   1.0000   1.0000
     1.0000   1.0000   1.0000   1.0000   1.0000   1.0000   1.0000   1.0000
     1.0000   1.0000   0.9617   0.7303   0.0000   0.0000   0.0000   0.0000
     0.0000   0.0000   0.0000   0.0000

          k = 0.5833-0.0833 0.5833 (  2535 PWs)   bands (ev):

   -91.2429 -51.6347 -51.6345 -51.6344   6.3134   7.3079   7.6575   7.6924
     7.8143   8.2706   9.1882   9.2402   9.6199   9.8656   9.9927  10.1056
    10.6110  10.8936  11.1881  11.4684  12.5381  13.8494  16.4856  19.5431
    23.2766  23.3156  24.4124  25.6478

     occupation numbers 
     1.0000   1.0000   1.0000   1.0000   1.0000   1.0000   1.0000   1.0000
     1.0000   1.0000   1.0000   1.0000   1.0000   1.0000   1.0000   1.0000
     1.0000   1.0000   1.0000   0.4268   0.0000   0.0000   0.0000   0.0000
     0.0000   0.0000   0.0000   0.0000

          k = 0.5000 0.0000 0.5000 (  2529 PWs)   bands (ev):

   -91.2429 -51.6346 -51.6345 -51.6344   5.8484   7.3585   7.6639   7.6691
     7.8923   8.0687   9.1816   9.1875   9.6428   9.7697  10.0883  10.1162
    10.6472  10.9456  11.0289  11.4595  13.5172  14.1411  17.3855  19.7989
    22.8105  22.8708  23.4349  24.5669

     occupation numbers 
     1.0000   1.0000   1.0000   1.0000   1.0000   1.0000   1.0000   1.0000
     1.0000   1.0000   1.0000   1.0000   1.0000   1.0000   1.0000   1.0000
     1.0000   1.0000   1.0000   0.5003   0.0000   0.0000   0.0000   0.0000
     0.0000   0.0000   0.0000   0.0000

          k = 0.0000 0.6667 0.0000 (  2502 PWs)   bands (ev):

   -91.2427 -51.6345 -51.6342 -51.6342   5.8240   6.9822   7.4317   7.8567
     7.8567   8.3694   8.5861   9.7055   9.7055   9.9899  10.2497  10.4991
    10.7953  10.7953  10.8637  11.4010  14.5107  14.9690  14.9690  18.9531
    19.3883  25.6694  25.6694  26.9396

     occupation numbers 
     1.0000   1.0000   1.0000   1.0000   1.0000   1.0000   1.0000   1.0000
     1.0000   1.0000   1.0000   1.0000   1.0000   1.0000   1.0000   1.0000
     1.0000   1.0000   1.0000   0.8880   0.0000   0.0000   0.0000   0.0000
     0.0000   0.0000   0.0000   0.0000

          k =-0.0833 0.7500-0.0833 (  2528 PWs)   bands (ev):

   -91.2429 -51.6348 -51.6344 -51.6344   6.3323   6.8933   7.4060   7.8579
     7.8614   8.5475   8.5562   9.6945   9.7426   9.8421  10.2177  10.4466
    10.7381  10.9774  11.0839  11.4403  13.4654  14.3058  14.5144  19.0633
    19.6645  25.9226  25.9667  27.5865

     occupation numbers 
     1.0000   1.0000   1.0000   1.0000   1.0000   1.0000   1.0000   1.0000
     1.0000   1.0000   1.0000   1.0000   1.0000   1.0000   1.0000   1.0000
     1.0000   1.0000   1.0000   0.6554   0.0000   0.0000   0.0000   0.0000
     0.0000   0.0000   0.0000   0.0000

          k = 0.8333-0.1667 0.8333 (  2534 PWs)   bands (ev):

   -91.2429 -51.6348 -51.6344 -51.6344   6.7457   6.9372   7.4324   7.8120
     7.8303   8.6142   8.7136   9.4412   9.7823   9.8815  10.1501  10.3823
    10.6267  11.1443  11.3408  11.5599  12.4118  13.5780  14.4521  19.1280
    20.7185  25.5940  25.6042  27.5634

     occupation numbers 
     1.0000   1.0000   1.0000   1.0000   1.0000   1.0000   1.0000   1.0000
     1.0000   1.0000   1.0000   1.0000   1.0000   1.0000   1.0000   1.0000
     1.0000   1.0000   0.9932   0.0185   0.0000   0.0000   0.0000   0.0000
     0.0000   0.0000   0.0000   0.0000

          k = 0.7500-0.0833 0.7500 (  2541 PWs)   bands (ev):

   -91.2430 -51.6348 -51.6345 -51.6344   6.7522   7.2359   7.5076   7.6985
     7.7869   8.7285   8.8194   9.2443   9.8437   9.9454  10.0729  10.2983
    10.5414  11.1611  11.4678  11.5963  11.9195  12.9912  14.8349  19.2132
    22.1533  24.9837  25.1593  26.5053

     occupation numbers 
     1.0000   1.0000   1.0000   1.0000   1.0000   1.0000   1.0000   1.0000
     1.0000   1.0000   1.0000   1.0000   1.0000   1.0000   1.0000   1.0000
     1.0000   1.0000   0.4317   0.0022   0.0000   0.0000   0.0000   0.0000
     0.0000   0.0000   0.0000   0.0000

          k = 0.6667-0.0000 0.6667 (  2556 PWs)   bands (ev):

   -91.2431 -51.6349 -51.6346 -51.6346   6.6287   7.3089   7.6006   7.6848
     7.7391   8.5200   9.0646   9.2286   9.7926   9.9796   9.9927  10.1911
    10.5359  10.9282  11.3281  11.4898  12.4697  12.8254  15.5637  19.3505
    23.7044  24.2346  24.6123  25.1683

     occupation numbers 
     1.0000   1.0000   1.0000   1.0000   1.0000   1.0000   1.0000   1.0000
     1.0000   1.0000   1.0000   1.0000   1.0000   1.0000   1.0000   1.0000
     1.0000   1.0000   0.9969   0.2647   0.0000   0.0000   0.0000   0.0000
     0.0000   0.0000   0.0000   0.0000

          k = 0.0000 0.8333 0.0000 (  2514 PWs)   bands (ev):

   -91.2427 -51.6348 -51.6343 -51.6343   6.7557   6.8292   7.3465   7.8887
     7.8887   8.3441   8.7546   9.6570   9.7577   9.7577  10.2369  10.4658
    10.7957  11.2027  11.2027  11.5097  12.9688  13.9053  13.9053  18.9068
    19.2563  27.2349  27.2349  28.4649

     occupation numbers 
     1.0000   1.0000   1.0000   1.0000   1.0000   1.0000   1.0000   1.0000
     1.0000   1.0000   1.0000   1.0000   1.0000   1.0000   1.0000   1.0000
     1.0000   1.0000   1.0000   0.1486   0.0000   0.0000   0.0000   0.0000
     0.0000   0.0000   0.0000   0.0000

          k = 0.9167-0.0833 0.9167 (  2521 PWs)   bands (ev):

   -91.2428 -51.6348 -51.6344 -51.6343   6.7535   7.2003   7.3844   7.8115
     7.8817   8.2778   8.9413   9.3918   9.7742   9.8255  10.2126  10.4438
    10.7152  11.3717  11.4215  11.6866  12.3699  13.3010  13.7194  19.0226
    19.5792  27.0583  27.3698  28.7978

     occupation numbers 
     1.0000   1.0000   1.0000   1.0000   1.0000   1.0000   1.0000   1.0000
     1.0000   1.0000   1.0000   1.0000   1.0000   1.0000   1.0000   1.0000
     1.0000   0.9661   0.7855   0.0000   0.0000   0.0000   0.0000   0.0000
     0.0000   0.0000   0.0000   0.0000

          k = 0.8333 0.0000 0.8333 (  2538 PWs)   bands (ev):

   -91.2430 -51.6349 -51.6345 -51.6344   6.7651   7.3637   7.4853   7.6112
     7.8436   8.5123   9.0474   9.1234   9.8254   9.9192  10.1544  10.3997
    10.5898  11.3851  11.4942  11.8657  12.0547  12.6282  14.0800  19.1078
    20.6655  26.1290  26.7337  27.2333

     occupation numbers 
     1.0000   1.0000   1.0000   1.0000   1.0000   1.0000   1.0000   1.0000
     1.0000   1.0000   1.0000   1.0000   1.0000   1.0000   1.0000   1.0000
     1.0000   0.9390   0.2353   0.0000   0.0000   0.0000   0.0000   0.0000
     0.0000   0.0000   0.0000   0.0000

          k = 0.0000-1.0000 0.0000 (  2498 PWs)   bands (ev):

   -91.2426 -51.6348 -51.6342 -51.6342   6.7226   7.2489   7.6031   7.9009
     7.9009   7.9174   9.0447   9.3813   9.7583   9.7583  10.2333  10.4556
    10.7755  11.4901  11.4901  11.7537  12.1698  13.4119  13.4119  18.8962
    19.2213  28.4496  28.4786  28.4786

     occupation numbers 
     1.0000   1.0000   1.0000   1.0000   1.0000   1.0000   1.0000   1.0000
     1.0000   1.0000   1.0000   1.0000   1.0000   1.0000   1.0000   1.0000
     1.0000   0.2628   0.2628   0.0000   0.0000   0.0000   0.0000   0.0000
     0.0000   0.0000   0.0000   0.0000

          k =-0.1667 0.3333 0.0000 (  2562 PWs)   bands (ev):

   -91.2432 -51.6347 -51.6345 -51.6345   4.4172   7.4956   7.6257   7.7121
     7.7646   7.8400   8.8816   9.1932   9.2766  10.2781  10.3298  10.4537
    10.7047  10.7309  11.1654  11.3728  16.7735  17.0809  19.1958  20.1861
    20.7930  22.3993  22.6974  23.5409

     occupation numbers 
     1.0000   1.0000   1.0000   1.0000   1.0000   1.0000   1.0000   1.0000
     1.0000   1.0000   1.0000   1.0000   1.0000   1.0000   1.0000   1.0000
     1.0000   1.0000   1.0000   0.9643   0.0000   0.0000   0.0000   0.0000
     0.0000   0.0000   0.0000   0.0000

          k =-0.2500 0.4167-0.0833 (  2546 PWs)   bands (ev):

   -91.2431 -51.6346 -51.6345 -51.6345   4.8866   7.4235   7.6496   7.7080
     7.7914   7.9525   8.9037   9.2476   9.4008  10.1007  10.2415  10.2839
    10.7250  10.7698  11.1280  11.3916  15.0645  16.4424  18.3788  20.1861
    21.3656  22.2716  22.7712  24.0045

     occupation numbers 
     1.0000   1.0000   1.0000   1.0000   1.0000   1.0000   1.0000   1.0000
     1.0000   1.0000   1.0000   1.0000   1.0000   1.0000   1.0000   1.0000
     1.0000   1.0000   1.0000   0.9212   0.0000   0.0000   0.0000   0.0000
     0.0000   0.0000   0.0000   0.0000

          k =-0.3333 0.5000-0.1667 (  2532 PWs)   bands (ev):

   -91.2429 -51.6347 -51.6344 -51.6344   5.4582   7.3709   7.6714   7.6976
     7.8507   8.0761   8.9341   9.2716   9.5061   9.8770  10.0979  10.1523
    10.7374  10.8532  11.1434  11.4024  13.5091  16.0826  17.5747  19.9921
    21.6642  22.6799  23.1415  23.9996

     occupation numbers 
     1.0000   1.0000   1.0000   1.0000   1.0000   1.0000   1.0000   1.0000
     1.0000   1.0000   1.0000   1.0000   1.0000   1.0000   1.0000   1.0000
     1.0000   1.0000   1.0000   0.8826   0.0000   0.0000   0.0000   0.0000
     0.0000   0.0000   0.0000   0.0000

          k = 0.5833-0.4167 0.7500 (  2528 PWs)   bands (ev):

   -91.2429 -51.6346 -51.6344 -51.6344   5.9828   7.3536   7.6545   7.7495
     7.8950   8.1796   8.9104   9.3072   9.5363   9.7350   9.9576  10.0596
    10.7548  10.9058  11.2227  11.3945  12.3764  15.9450  16.9339  19.8657
    21.5752  22.9255  23.6162  24.5834

     occupation numbers 
     1.0000   1.0000   1.0000   1.0000   1.0000   1.0000   1.0000   1.0000
     1.0000   1.0000   1.0000   1.0000   1.0000   1.0000   1.0000   1.0000
     1.0000   1.0000   1.0000   0.9119   0.0000   0.0000   0.0000   0.0000
     0.0000   0.0000   0.0000   0.0000

          k = 0.5000-0.3333 0.6667 (  2532 PWs)   bands (ev):

   -91.2429 -51.6347 -51.6344 -51.6344   6.2084   7.3556   7.6447   7.8189
     7.8785   8.2232   8.8721   9.3778   9.4415   9.7768   9.8578  10.0261
    10.7603  10.9323  11.2884  11.3728  11.9311  15.9526  16.6515  19.8231
    21.5335  23.0963  23.4258  25.9095

     occupation numbers 
     1.0000   1.0000   1.0000   1.0000   1.0000   1.0000   1.0000   1.0000
     1.0000   1.0000   1.0000   1.0000   1.0000   1.0000   1.0000   1.0000
     1.0000   1.0000   0.9998   0.9643   0.0000   0.0000   0.0000   0.0000
     0.0000   0.0000   0.0000   0.0000

          k =-0.1667 0.5000 0.0000 (  2539 PWs)   bands (ev):

   -91.2430 -51.6346 -51.6345 -51.6344   5.0636   7.2641   7.5778   7.7778
     7.8049   8.0515   8.7693   9.4504   9.5169  10.1052  10.2549  10.3787
    10.6897  10.7343  11.0344  11.3884  15.3755  15.8320  17.1211  19.7273
    20.2203  23.3145  24.1203  24.8788

     occupation numbers 
     1.0000   1.0000   1.0000   1.0000   1.0000   1.0000   1.0000   1.0000
     1.0000   1.0000   1.0000   1.0000   1.0000   1.0000   1.0000   1.0000
     1.0000   1.0000   1.0000   0.9304   0.0000   0.0000   0.0000   0.0000
     0.0000   0.0000   0.0000   0.0000

          k =-0.2500 0.5833-0.0833 (  2531 PWs)   bands (ev):

   -91.2429 -51.6347 -51.6344 -51.6344   5.5983   7.1797   7.5985   7.7578
     7.8216   8.2007   8.8176   9.5056   9.6311   9.8739  10.1674  10.2675
    10.6896  10.8495  11.0584  11.4018  13.9260  15.2495  16.4035  19.8272
    21.0567  22.9450  24.4026  25.3121

     occupation numbers 
     1.0000   1.0000   1.0000   1.0000   1.0000   1.0000   1.0000   1.0000
     1.0000   1.0000   1.0000   1.0000   1.0000   1.0000   1.0000   1.0000
     1.0000   1.0000   1.0000   0.8851   0.0000   0.0000   0.0000   0.0000
     0.0000   0.0000   0.0000   0.0000

          k = 0.6667-0.3333 0.8333 (  2522 PWs)   bands (ev):

   -91.2428 -51.6346 -51.6344 -51.6343   6.1367   7.1441   7.6388   7.7267
     7.8424   8.3249   8.9078   9.5170   9.6206   9.7295  10.0616  10.1762
    10.6682  10.9419  11.1887  11.4154  12.6362  14.9778  15.8208  19.8224
    22.2128  22.7269  24.5133  25.2569

     occupation numbers 
     1.0000   1.0000   1.0000   1.0000   1.0000   1.0000   1.0000   1.0000
     1.0000   1.0000   1.0000   1.0000   1.0000   1.0000   1.0000   1.0000
     1.0000   1.0000   1.0000   0.8207   0.0000   0.0000   0.0000   0.0000
     0.0000   0.0000   0.0000   0.0000

          k = 0.5833-0.2500 0.7500 (  2534 PWs)   bands (ev):

   -91.2429 -51.6347 -51.6345 -51.6344   6.4458   7.1818   7.6703   7.7139
     7.8472   8.3679   9.0346   9.3800   9.5595   9.7993   9.9962  10.0910
    10.6358  11.0176  11.2999  11.4317  11.8947  14.7365  15.6942  19.9002
    22.1541  23.8284  24.3637  25.3865

     occupation numbers 
     1.0000   1.0000   1.0000   1.0000   1.0000   1.0000   1.0000   1.0000
     1.0000   1.0000   1.0000   1.0000   1.0000   1.0000   1.0000   1.0000
     1.0000   1.0000   0.9995   0.7183   0.0000   0.0000   0.0000   0.0000
     0.0000   0.0000   0.0000   0.0000

          k = 0.5000-0.1667 0.6667 (  2531 PWs)   bands (ev):

   -91.2429 -51.6347 -51.6345 -51.6344   6.3490   7.2414   7.6622   7.7273
     7.8389   8.2983   9.1023   9.3189   9.5651   9.8071   9.9962  10.0818
    10.6282  10.9812  11.2213  11.4462  12.1545  14.5183  16.0902  20.0788
    21.9116  23.8301  24.4620  25.3887

     occupation numbers 
     1.0000   1.0000   1.0000   1.0000   1.0000   1.0000   1.0000   1.0000
     1.0000   1.0000   1.0000   1.0000   1.0000   1.0000   1.0000   1.0000
     1.0000   1.0000   1.0000   0.6090   0.0000   0.0000   0.0000   0.0000
     0.0000   0.0000   0.0000   0.0000

          k = 0.4167-0.0833 0.5833 (  2534 PWs)   bands (ev):

   -91.2429 -51.6347 -51.6345 -51.6344   5.9240   7.2749   7.6659   7.7141
     7.8398   8.1665   9.0317   9.3457   9.6381   9.7567  10.0855  10.1266
    10.6500  10.9534  11.0708  11.4454  13.1449  14.5360  16.7758  20.3667
    21.6682  22.9407  23.8647  25.4589

     occupation numbers 
     1.0000   1.0000   1.0000   1.0000   1.0000   1.0000   1.0000   1.0000
     1.0000   1.0000   1.0000   1.0000   1.0000   1.0000   1.0000   1.0000
     1.0000   1.0000   1.0000   0.6157   0.0000   0.0000   0.0000   0.0000
     0.0000   0.0000   0.0000   0.0000

          k = 0.3333 0.0000 0.5000 (  2537 PWs)   bands (ev):

   -91.2430 -51.6347 -51.6345 -51.6344   5.3778   7.3342   7.6630   7.7156
     7.8134   8.0459   8.9544   9.3098   9.5552   9.9070  10.1740  10.2050
    10.6867  10.8703  11.0472  11.4229  14.3844  14.9861  17.5924  20.7112
    21.1586  22.2852  23.4338  24.7411

     occupation numbers 
     1.0000   1.0000   1.0000   1.0000   1.0000   1.0000   1.0000   1.0000
     1.0000   1.0000   1.0000   1.0000   1.0000   1.0000   1.0000   1.0000
     1.0000   1.0000   1.0000   0.7768   0.0000   0.0000   0.0000   0.0000
     0.0000   0.0000   0.0000   0.0000

          k =-0.1667 0.6667-0.0000 (  2537 PWs)   bands (ev):

   -91.2430 -51.6347 -51.6345 -51.6344   5.9013   7.0129   7.4810   7.8110
     7.8561   8.3675   8.6709   9.6729   9.7099   9.8817  10.2091  10.3974
    10.6838  10.8783  11.0066  11.4071  14.0255  14.6628  15.2980  19.4914
    19.8998  24.3869  25.5686  26.7103

     occupation numbers 
     1.0000   1.0000   1.0000   1.0000   1.0000   1.0000   1.0000   1.0000
     1.0000   1.0000   1.0000   1.0000   1.0000   1.0000   1.0000   1.0000
     1.0000   1.0000   1.0000   0.8623   0.0000   0.0000   0.0000   0.0000
     0.0000   0.0000   0.0000   0.0000

          k = 0.7500-0.2500 0.9167 (  2522 PWs)   bands (ev):

   -91.2428 -51.6347 -51.6344 -51.6343   6.4212   6.9601   7.4947   7.7701
     7.8707   8.5232   8.7291   9.5831   9.7378   9.8007  10.1461  10.3323
    10.6094  11.0388  11.1988  11.4601  12.9025  14.1051  14.7735  19.6530
    20.8280  23.9360  25.8796  26.9251

     occupation numbers 
     1.0000   1.0000   1.0000   1.0000   1.0000   1.0000   1.0000   1.0000
     1.0000   1.0000   1.0000   1.0000   1.0000   1.0000   1.0000   1.0000
     1.0000   1.0000   1.0000   0.4949   0.0000   0.0000   0.0000   0.0000
     0.0000   0.0000   0.0000   0.0000

          k = 0.6667-0.1667 0.8333 (  2535 PWs)   bands (ev):

   -91.2429 -51.6348 -51.6345 -51.6344   6.7198   7.0499   7.5440   7.7106
     7.8585   8.5996   8.8798   9.3607   9.7750   9.8578  10.0844  10.2452
    10.5327  11.1390  11.3873  11.5935  11.9412  13.6515  14.7317  19.7465
    22.2383  23.4769  25.5674  26.2548

     occupation numbers 
     1.0000   1.0000   1.0000   1.0000   1.0000   1.0000   1.0000   1.0000
     1.0000   1.0000   1.0000   1.0000   1.0000   1.0000   1.0000   1.0000
     1.0000   1.0000   0.9334   0.0027   0.0000   0.0000   0.0000   0.0000
     0.0000   0.0000   0.0000   0.0000

          k = 0.5833-0.0833 0.7500 (  2531 PWs)   bands (ev):

   -91.2429 -51.6347 -51.6345 -51.6344   6.6653   7.1995   7.6082   7.6753
     7.8229   8.5135   9.0896   9.2480   9.7599   9.8736  10.0701  10.1555
    10.5036  11.0627  11.3477  11.5098  12.1036  13.2872  15.1914  19.9185
    23.0447  23.7768  24.5801  25.4317

     occupation numbers 
     1.0000   1.0000   1.0000   1.0000   1.0000   1.0000   1.0000   1.0000
     1.0000   1.0000   1.0000   1.0000   1.0000   1.0000   1.0000   1.0000
     1.0000   1.0000   0.9900   0.1479   0.0000   0.0000   0.0000   0.0000
     0.0000   0.0000   0.0000   0.0000

          k = 0.5000 0.0000 0.6667 (  2531 PWs)   bands (ev):

   -91.2429 -51.6347 -51.6344 -51.6344   6.3809   7.2256   7.6381   7.7136
     7.8137   8.3273   9.1191   9.3323   9.6397   9.8408  10.0764  10.1228
    10.5537  10.9642  11.1802  11.4841  12.8185  13.3862  15.9270  20.1689
    22.4935  23.3376  24.7227  25.4838

     occupation numbers 
     1.0000   1.0000   1.0000   1.0000   1.0000   1.0000   1.0000   1.0000
     1.0000   1.0000   1.0000   1.0000   1.0000   1.0000   1.0000   1.0000
     1.0000   1.0000   1.0000   0.3050   0.0000   0.0000   0.0000   0.0000
     0.0000   0.0000   0.0000   0.0000

          k = 0.8333-0.1667 1.0000 (  2521 PWs)   bands (ev):

   -91.2428 -51.6347 -51.6344 -51.6343   6.7850   6.8540   7.3878   7.8048
     7.8971   8.4939   8.7423   9.5169   9.7604   9.8597  10.1966  10.4248
    10.6583  11.1996  11.2803  11.5432  12.8102  13.6980  13.9524  19.3886
    19.7540  25.5696  27.1043  28.0999

     occupation numbers 
     1.0000   1.0000   1.0000   1.0000   1.0000   1.0000   1.0000   1.0000
     1.0000   1.0000   1.0000   1.0000   1.0000   1.0000   1.0000   1.0000
     1.0000   1.0000   0.9999   0.0411   0.0000   0.0000   0.0000   0.0000
     0.0000   0.0000   0.0000   0.0000

          k = 0.7500-0.0833 0.9167 (  2529 PWs)   bands (ev):

   -91.2429 -51.6348 -51.6344 -51.6343   6.8041   7.1958   7.4184   7.6873
     7.8949   8.6025   8.8816   9.2657   9.7824   9.9502  10.1491  10.3646
    10.5336  11.2980  11.4832  11.7855  12.1493  13.0015  13.8834  19.5869
    20.7282  25.0057  26.5571  27.2752

     occupation numbers 
     1.0000   1.0000   1.0000   1.0000   1.0000   1.0000   1.0000   1.0000
     1.0000   1.0000   1.0000   1.0000   1.0000   1.0000   1.0000   1.0000
     1.0000   0.9996   0.3113   0.0000   0.0000   0.0000   0.0000   0.0000
     0.0000   0.0000   0.0000   0.0000

          k = 0.6667 0.0000 0.8333 (  2536 PWs)   bands (ev):

   -91.2429 -51.6348 -51.6345 -51.6344   6.7944   7.2820   7.5005   7.6230
     7.8563   8.7655   8.8732   9.1905   9.8282   9.9797  10.1015  10.2558
    10.4668  11.2642  11.5054  11.5860  12.3234  12.4469  14.3956  19.7266
    22.1950  24.2637  25.2062  26.4884

     occupation numbers 
     1.0000   1.0000   1.0000   1.0000   1.0000   1.0000   1.0000   1.0000
     1.0000   1.0000   1.0000   1.0000   1.0000   1.0000   1.0000   1.0000
     1.0000   1.0000   0.1703   0.0043   0.0000   0.0000   0.0000   0.0000
     0.0000   0.0000   0.0000   0.0000

          k =-0.1667-1.0000-0.0000 (  2522 PWs)   bands (ev):

   -91.2428 -51.6349 -51.6344 -51.6343   6.7547   7.3079   7.5524   7.6066
     7.9127   8.3157   9.0868   9.1983   9.7590   9.8940  10.1954  10.4277
    10.6421  11.4076  11.5268  11.8927  12.0707  13.2470  13.3593  19.3604
    19.7141  26.3861  27.5568  28.2140

     occupation numbers 
     1.0000   1.0000   1.0000   1.0000   1.0000   1.0000   1.0000   1.0000
     1.0000   1.0000   1.0000   1.0000   1.0000   1.0000   1.0000   1.0000
     1.0000   0.8597   0.0809   0.0000   0.0000   0.0000   0.0000   0.0000
     0.0000   0.0000   0.0000   0.0000

          k = 0.6667-0.3333 1.0000 (  2527 PWs)   bands (ev):

   -91.2429 -51.6346 -51.6344 -51.6344   6.1098   7.1012   7.5988   7.7346
     7.8465   8.3314   8.8828   9.5771   9.6517   9.7574  10.1327  10.2309
    10.6026  11.0212  11.0648  11.4442  13.3584  14.0341  15.6805  20.7799
    21.0113  22.5544  25.1465  26.6027

     occupation numbers 
     1.0000   1.0000   1.0000   1.0000   1.0000   1.0000   1.0000   1.0000
     1.0000   1.0000   1.0000   1.0000   1.0000   1.0000   1.0000   1.0000
     1.0000   1.0000   1.0000   0.6253   0.0000   0.0000   0.0000   0.0000
     0.0000   0.0000   0.0000   0.0000

          k = 0.5833-0.2500 0.9167 (  2523 PWs)   bands (ev):

   -91.2428 -51.6347 -51.6344 -51.6343   6.5490   7.0791   7.6065   7.6942
     7.8742   8.4528   8.9971   9.4282   9.6709   9.7955  10.0962  10.1844
    10.5225  11.1090  11.2371  11.5027  12.4094  13.7065  15.0348  20.8388
    21.8159  22.7257  25.5602  25.7374

     occupation numbers 
     1.0000   1.0000   1.0000   1.0000   1.0000   1.0000   1.0000   1.0000
     1.0000   1.0000   1.0000   1.0000   1.0000   1.0000   1.0000   1.0000
     1.0000   1.0000   1.0000   0.1846   0.0000   0.0000   0.0000   0.0000
     0.0000   0.0000   0.0000   0.0000

          k = 0.5000-0.1667 0.8333 (  2528 PWs)   bands (ev):

   -91.2429 -51.6347 -51.6344 -51.6343   6.7134   7.0980   7.6111   7.6708
     7.8876   8.5062   9.1147   9.2750   9.7221   9.8084  10.0860  10.1420
    10.4886  11.1690  11.3863  11.6106  11.7899  13.7162  14.7355  20.8269
    21.8915  23.8864  24.2949  25.8406

     occupation numbers 
     1.0000   1.0000   1.0000   1.0000   1.0000   1.0000   1.0000   1.0000
     1.0000   1.0000   1.0000   1.0000   1.0000   1.0000   1.0000   1.0000
     1.0000   1.0000   0.9360   0.0008   0.0000   0.0000   0.0000   0.0000
     0.0000   0.0000   0.0000   0.0000

          k = 0.6667-0.1667 1.0000 (  2534 PWs)   bands (ev):

   -91.2429 -51.6348 -51.6344 -51.6344   6.8345   6.9278   7.4966   7.6976
     7.9150   8.6633   8.8035   9.3966   9.7715   9.8588  10.1329  10.2845
    10.4894  11.2000  11.3788  11.5946  12.5216  13.2513  14.0930  20.6213
    21.0271  23.4116  26.0548  26.8267

     occupation numbers 
     1.0000   1.0000   1.0000   1.0000   1.0000   1.0000   1.0000   1.0000
     1.0000   1.0000   1.0000   1.0000   1.0000   1.0000   1.0000   1.0000
     1.0000   1.0000   0.9533   0.0025   0.0000   0.0000   0.0000   0.0000
     0.0000   0.0000   0.0000   0.0000

          k = 0.5833-0.0833 0.9167 (  2527 PWs)   bands (ev):

   -91.2429 -51.6348 -51.6344 -51.6344   6.8979   7.0782   7.5267   7.6381
     7.9313   8.7135   8.9762   9.2363   9.7831   9.9221  10.1121  10.1817
    10.4374  11.2533  11.5401  11.7598  12.0594  12.8987  13.8395  20.9274
    22.3268  22.9630  24.4059  27.0689

     occupation numbers 
     1.0000   1.0000   1.0000   1.0000   1.0000   1.0000   1.0000   1.0000
     1.0000   1.0000   1.0000   1.0000   1.0000   1.0000   1.0000   1.0000
     1.0000   1.0000   0.0470   0.0000   0.0000   0.0000   0.0000   0.0000
     0.0000   0.0000   0.0000   0.0000

          k = 0.5000 0.0000 0.8333 (  2528 PWs)   bands (ev):

   -91.2429 -51.6348 -51.6345 -51.6343   6.8295   7.0781   7.5697   7.6462
     7.9117   8.6090   9.0806   9.2517   9.7973   9.8238  10.1151  10.1698
    10.4371  11.2088  11.4312  11.5983  12.3675  12.7845  14.2926  21.1617
    22.3127  23.1191  24.0287  26.5652

     occupation numbers 
     1.0000   1.0000   1.0000   1.0000   1.0000   1.0000   1.0000   1.0000
     1.0000   1.0000   1.0000   1.0000   1.0000   1.0000   1.0000   1.0000
     1.0000   1.0000   0.7219   0.0020   0.0000   0.0000   0.0000   0.0000
     0.0000   0.0000   0.0000   0.0000

          k =-0.3333-1.0000 0.0000 (  2536 PWs)   bands (ev):

   -91.2429 -51.6348 -51.6344 -51.6344   6.8523   7.2532   7.4435   7.6137
     7.9427   8.7495   8.9183   9.1674   9.7602  10.0414  10.1415  10.2195
    10.4607  11.3157  11.5979  11.8674  12.1639  12.8875  13.2809  20.5721
    21.0183  24.2318  25.1390  27.8219

     occupation numbers 
     1.0000   1.0000   1.0000   1.0000   1.0000   1.0000   1.0000   1.0000
     1.0000   1.0000   1.0000   1.0000   1.0000   1.0000   1.0000   1.0000
     1.0000   0.9986   0.0020   0.0000   0.0000   0.0000   0.0000   0.0000
     0.0000   0.0000   0.0000   0.0000

          k =-0.5000-1.0000 0.0000 (  2520 PWs)   bands (ev):

   -91.2428 -51.6347 -51.6344 -51.6343   7.0095   7.0276   7.5233   7.6173
     7.9651   8.7778   9.0374   9.1724   9.7691   9.9789  10.0528  10.1619
    10.4295  11.2828  11.6388  11.7580  12.5030  12.5050  13.2508  22.1924
    22.3160  22.5910  23.2096  27.6774

     occupation numbers 
     1.0000   1.0000   1.0000   1.0000   1.0000   1.0000   1.0000   1.0000
     1.0000   1.0000   1.0000   1.0000   1.0000   1.0000   1.0000   1.0000
     1.0000   0.9999   0.0001   0.0000   0.0000   0.0000   0.0000   0.0000
     0.0000   0.0000   0.0000   0.0000

     the Fermi energy is    11.4595 ev
     (compare with:    11.4615 eV, computed in scf)

     Writing output data file ././cunipt.save/

     init_run     :      1.15s CPU      1.21s WALL (       1 calls)
     electrons    :    141.46s CPU    142.15s WALL (       1 calls)

     Called by init_run:
     wfcinit      :      0.00s CPU      0.00s WALL (       1 calls)
     wfcinit:atom :      0.04s CPU      0.04s WALL (      72 calls)
     wfcinit:wfcr :      3.57s CPU      3.58s WALL (      72 calls)
     potinit      :      0.36s CPU      0.37s WALL (       1 calls)
     hinit0       :      0.70s CPU      0.71s WALL (       1 calls)

     Called by electrons:
     c_bands      :    141.46s CPU    142.15s WALL (       1 calls)
     v_of_rho     :      0.02s CPU      0.02s WALL (       1 calls)
     v_h          :      0.00s CPU      0.00s WALL (       1 calls)
     v_xc         :      0.02s CPU      0.02s WALL (       1 calls)
     newd         :      0.06s CPU      0.10s WALL (       1 calls)
     PAW_pot      :      0.34s CPU      0.35s WALL (       1 calls)

     Called by c_bands:
     init_us_2    :      0.05s CPU      0.07s WALL (      72 calls)
     cegterg      :    137.24s CPU    137.88s WALL (     184 calls)

     Called by sum_band:

     Called by *egterg:
     cdiaghg      :      3.14s CPU      3.15s WALL (    3179 calls)
     cegterg:over :     16.19s CPU     16.26s WALL (    3107 calls)
     cegterg:upda :      9.94s CPU      9.99s WALL (    3107 calls)
     cegterg:last :     27.79s CPU     27.91s WALL (    1863 calls)
     h_psi        :     70.70s CPU     71.06s WALL (    3363 calls)
     s_psi        :     10.17s CPU     10.21s WALL (    3363 calls)
     g_psi        :      0.60s CPU      0.60s WALL (    3107 calls)

     Called by h_psi:
     h_psi:calbec :      9.52s CPU      9.57s WALL (    3363 calls)
     vloc_psi     :     50.74s CPU     51.00s WALL (    3363 calls)
     add_vuspsi   :     10.22s CPU     10.26s WALL (    3363 calls)

     General routines
     calbec       :      9.51s CPU      9.56s WALL (    3363 calls)
     fft          :      0.01s CPU      0.01s WALL (      12 calls)
     fftw         :     44.44s CPU     44.69s WALL (  109768 calls)
     davcio       :      0.02s CPU      0.05s WALL (     144 calls)

     Parallel routines

     PAW routines
     PAW_pot      :      0.34s CPU      0.35s WALL (       1 calls)

     PWSCF        :   2m22.94s CPU   2m23.77s WALL


   This run was terminated on:  21:33:20  13Sep2024            

=------------------------------------------------------------------------------=
   JOB DONE.
=------------------------------------------------------------------------------=
