
     Program PWSCF v.6.7MaX starts on 13Sep2024 at 23: 8:36 

     This program is part of the open-source Quantum ESPRESSO suite
     for quantum simulation of materials; please cite
         "P. Giannozzi et al., J. Phys.:Condens. Matter 21 395502 (2009);
         "P. Giannozzi et al., J. Phys.:Condens. Matter 29 465901 (2017);
          URL http://www.quantum-espresso.org", 
     in publications or presentations arising from this work. More details at
     http://www.quantum-espresso.org/quote

     Parallel version (MPI), running on     1 processors

     MPI processes distributed on     1 nodes
     Waiting for input...
     Reading input from standard input

     Current dimensions of program PWSCF are:
     Max number of different atomic species (ntypx) = 10
     Max number of k-points (npk) =  40000
     Max angular momentum in pseudopotentials (lmaxx) =  3
     file Cu.upf: wavefunction(s)  4S 3D renormalized
     file Ni.upf: wavefunction(s)  3P 3D renormalized
     file Pt.upf: wavefunction(s)  6S 5D renormalized

     Subspace diagonalization in iterative solution of the eigenvalue problem:
     a serial algorithm will be used


     G-vector sticks info
     --------------------
     sticks:   dense  smooth     PW     G-vecs:    dense   smooth      PW
     Sum         967     967    301                20179    20179    3479



     bravais-lattice index     =            2
     lattice parameter (alat)  =      10.8900  a.u.
     unit-cell volume          =     322.8670 (a.u.)^3
     number of atoms/cell      =            3
     number of atomic types    =            3
     number of electrons       =        39.00
     number of Kohn-Sham states=           24
     kinetic-energy cutoff     =      60.0000  Ry
     charge density cutoff     =     240.0000  Ry
     scf convergence threshold =      1.0E-06
     mixing beta               =       0.6000
     number of iterations used =            8  plain     mixing
     Exchange-correlation= SLA  PW   PBX  PBC
                           (   1   4   3   4   0   0   0)

     celldm(1)=  10.890000  celldm(2)=   0.000000  celldm(3)=   0.000000
     celldm(4)=   0.000000  celldm(5)=   0.000000  celldm(6)=   0.000000

     crystal axes: (cart. coord. in units of alat)
               a(1) = (  -0.500000   0.000000   0.500000 )  
               a(2) = (   0.000000   0.500000   0.500000 )  
               a(3) = (  -0.500000   0.500000   0.000000 )  

     reciprocal axes: (cart. coord. in units 2 pi/alat)
               b(1) = ( -1.000000 -1.000000  1.000000 )  
               b(2) = (  1.000000  1.000000  1.000000 )  
               b(3) = ( -1.000000  1.000000 -1.000000 )  


     PseudoPot. # 1 for Cu read from file:
     ././Cu.upf
     MD5 check sum: cfffd1f38ee05704b3e17f46f1730a6f
     Pseudo is Projector augmented-wave + core cor, Zval = 11.0
     Generated using &quot;atomic&quot; code by A. Dal Corso  v.6.3
     Shape of augmentation charge: PSQ
     Using radial grid of 1199 points,  6 beta functions with: 
                l(1) =   0
                l(2) =   0
                l(3) =   1
                l(4) =   1
                l(5) =   2
                l(6) =   2
     Q(r) pseudized with 0 coefficients 


     PseudoPot. # 2 for Ni read from file:
     ././Ni.upf
     MD5 check sum: 6e86b733589c3ad8389697b807d86aa7
     Pseudo is Projector augmented-wave + core cor, Zval = 18.0
     Generated using &quot;atomic&quot; code by A. Dal Corso  v.6.3
     Shape of augmentation charge: PSQ
     Using radial grid of 1195 points,  6 beta functions with: 
                l(1) =   0
                l(2) =   0
                l(3) =   1
                l(4) =   1
                l(5) =   2
                l(6) =   2
     Q(r) pseudized with 0 coefficients 


     PseudoPot. # 3 for Pt read from file:
     ././Pt.upf
     MD5 check sum: c5224e9cd7a5e36e81f2def9f50bb494
     Pseudo is Projector augmented-wave + core cor, Zval = 10.0
     Generated using &quot;atomic&quot; code by A. Dal Corso  v.6.3
     Shape of augmentation charge: PSQ
     Using radial grid of 1277 points,  6 beta functions with: 
                l(1) =   0
                l(2) =   0
                l(3) =   1
                l(4) =   1
                l(5) =   2
                l(6) =   2
     Q(r) pseudized with 0 coefficients 


     atomic species   valence    mass     pseudopotential
        Cu            11.00    63.54600     Cu( 1.00)
        Ni            18.00    58.69300     Ni( 1.00)
        Pt            10.00   195.08000     Pt( 1.00)

     24 Sym. Ops. (no inversion) found



   Cartesian axes

     site n.     atom                  positions (alat units)
         1           Cu  tau(   1) = (   0.0000000   0.0000000   0.0000000  )
         2           Ni  tau(   2) = (   0.5000000   0.5000000   0.5000000  )
         3           Pt  tau(   3) = (   0.2500000   0.2500000   0.2500000  )

     number of k points=   110  Gaussian smearing, width (Ry)=  0.0100

     Number of k-points >= 100: set verbosity='high' to print them.

     Dense  grid:    20179 G-vectors     FFT dimensions: (  40,  40,  40)

     Estimated max dynamical RAM per process >     180.42 MB

     Check: negative core charge=   -0.000002

     Initial potential from superposition of free atoms

     starting charge   38.99935, renormalised to   39.00000
     Starting wfcs are   28 randomized atomic wfcs
     Checking if some PAW data can be deallocated... 

     total cpu time spent up to now is        6.6 secs

     Self-consistent Calculation

     iteration #  1     ecut=    60.00 Ry     beta= 0.60
     Davidson diagonalization with overlap
     ethr =  1.00E-02,  avg # of iterations =  4.6

     total cpu time spent up to now is       21.7 secs

     total energy              =   -1388.13833405 Ry
     estimated scf accuracy    <       1.84106394 Ry

     iteration #  2     ecut=    60.00 Ry     beta= 0.60
     Davidson diagonalization with overlap
     ethr =  4.72E-03,  avg # of iterations =  6.8

     total cpu time spent up to now is       42.8 secs

     total energy              =   -1386.36415703 Ry
     estimated scf accuracy    <      45.85485811 Ry

     iteration #  3     ecut=    60.00 Ry     beta= 0.60
     Davidson diagonalization with overlap
     ethr =  4.72E-03,  avg # of iterations =  4.8

     total cpu time spent up to now is       62.9 secs

     total energy              =   -1389.41278987 Ry
     estimated scf accuracy    <       0.42307195 Ry

     iteration #  4     ecut=    60.00 Ry     beta= 0.60
     Davidson diagonalization with overlap
     ethr =  1.08E-03,  avg # of iterations =  2.0

     total cpu time spent up to now is       77.0 secs

     total energy              =   -1389.45388079 Ry
     estimated scf accuracy    <       0.03896390 Ry

     iteration #  5     ecut=    60.00 Ry     beta= 0.60
     Davidson diagonalization with overlap
     ethr =  9.99E-05,  avg # of iterations =  3.9

     total cpu time spent up to now is       92.6 secs

     total energy              =   -1389.45652901 Ry
     estimated scf accuracy    <       0.01779222 Ry

     iteration #  6     ecut=    60.00 Ry     beta= 0.60
     Davidson diagonalization with overlap
     ethr =  4.56E-05,  avg # of iterations =  2.3

     total cpu time spent up to now is      107.3 secs

     total energy              =   -1389.45931142 Ry
     estimated scf accuracy    <       0.00901612 Ry

     iteration #  7     ecut=    60.00 Ry     beta= 0.60
     Davidson diagonalization with overlap
     ethr =  2.31E-05,  avg # of iterations =  1.5

     total cpu time spent up to now is      119.7 secs

     total energy              =   -1389.46032009 Ry
     estimated scf accuracy    <       0.00246775 Ry

     iteration #  8     ecut=    60.00 Ry     beta= 0.60
     Davidson diagonalization with overlap
     ethr =  6.33E-06,  avg # of iterations =  4.4

     total cpu time spent up to now is      134.6 secs

     total energy              =   -1389.46066963 Ry
     estimated scf accuracy    <       0.00046326 Ry

     iteration #  9     ecut=    60.00 Ry     beta= 0.60
     Davidson diagonalization with overlap
     ethr =  1.19E-06,  avg # of iterations =  4.2

     total cpu time spent up to now is      151.9 secs

     total energy              =   -1389.46075499 Ry
     estimated scf accuracy    <       0.00000233 Ry

     iteration # 10     ecut=    60.00 Ry     beta= 0.60
     Davidson diagonalization with overlap
     ethr =  5.98E-09,  avg # of iterations =  8.7

     total cpu time spent up to now is      194.3 secs

     total energy              =   -1389.46076974 Ry
     estimated scf accuracy    <       0.00000980 Ry

     iteration # 11     ecut=    60.00 Ry     beta= 0.60
     Davidson diagonalization with overlap
     ethr =  5.98E-09,  avg # of iterations =  1.0

     total cpu time spent up to now is      207.3 secs

     total energy              =   -1389.46076560 Ry
     estimated scf accuracy    <       0.00000900 Ry

     iteration # 12     ecut=    60.00 Ry     beta= 0.60
     Davidson diagonalization with overlap
     ethr =  5.98E-09,  avg # of iterations =  3.7

     total cpu time spent up to now is      228.3 secs

     total energy              =   -1389.46076774 Ry
     estimated scf accuracy    <       0.00000199 Ry

     iteration # 13     ecut=    60.00 Ry     beta= 0.60
     Davidson diagonalization with overlap
     ethr =  5.10E-09,  avg # of iterations =  1.0

     total cpu time spent up to now is      241.6 secs

     total energy              =   -1389.46076731 Ry
     estimated scf accuracy    <       0.00000133 Ry

     iteration # 14     ecut=    60.00 Ry     beta= 0.60
     Davidson diagonalization with overlap
     ethr =  3.40E-09,  avg # of iterations =  1.5

     total cpu time spent up to now is      256.2 secs

     End of self-consistent calculation

     Number of k-points >= 100: set verbosity='high' to print the bands.

     the Fermi energy is    11.4803 ev

!    total energy              =   -1389.46076739 Ry

     total all-electron energy =    -43178.960549 Ry
     estimated scf accuracy    <       0.00000004 Ry
     smearing contrib. (-TS)   =      -0.00487586 Ry
     internal energy E=F+TS    =   -1389.45589153 Ry

     The total energy is F=E-TS. E is the sum of the following terms:
     one-electron contribution =    -290.95325016 Ry
     hartree contribution      =     181.66319398 Ry
     xc contribution           =    -102.73323913 Ry
     ewald contribution        =    -311.79126866 Ry
     one-center paw contrib.   =    -865.64132756 Ry

     convergence has been achieved in  14 iterations

     Writing output data file ././cunipt.save/

     init_run     :      6.31s CPU      6.41s WALL (       1 calls)
     electrons    :    247.91s CPU    249.61s WALL (       1 calls)

     Called by init_run:
     wfcinit      :      5.22s CPU      5.25s WALL (       1 calls)
     potinit      :      0.34s CPU      0.35s WALL (       1 calls)
     hinit0       :      0.67s CPU      0.67s WALL (       1 calls)

     Called by electrons:
     c_bands      :    214.41s CPU    214.78s WALL (      14 calls)
     sum_band     :     27.82s CPU     28.54s WALL (      14 calls)
     v_of_rho     :      0.29s CPU      0.29s WALL (      15 calls)
     newd         :      0.79s CPU      1.43s WALL (      15 calls)
     PAW_pot      :      4.93s CPU      4.95s WALL (      15 calls)
     mix_rho      :      0.04s CPU      0.04s WALL (      14 calls)

     Called by c_bands:
     init_us_2    :      2.46s CPU      2.48s WALL (    3190 calls)
     cegterg      :    205.84s CPU    206.19s WALL (    1540 calls)

     Called by *egterg:
     cdiaghg      :      3.66s CPU      3.67s WALL (    7096 calls)
     h_psi        :    125.73s CPU    126.02s WALL (    7206 calls)
     s_psi        :     18.31s CPU     18.34s WALL (    7206 calls)
     g_psi        :      0.76s CPU      0.77s WALL (    5556 calls)

     Called by h_psi:
     h_psi:calbec :     16.99s CPU     17.01s WALL (    7206 calls)
     vloc_psi     :     89.94s CPU     90.19s WALL (    7206 calls)
     add_vuspsi   :     18.36s CPU     18.38s WALL (    7206 calls)

     General routines
     calbec       :     22.94s CPU     22.97s WALL (    8746 calls)
     fft          :      0.13s CPU      0.13s WALL (     165 calls)
     ffts         :      0.01s CPU      0.01s WALL (      14 calls)
     fftw         :     95.18s CPU     95.44s WALL (  244952 calls)

     Parallel routines

     PWSCF        :   4m14.48s CPU   4m16.35s WALL


   This run was terminated on:  23:12:52  13Sep2024            

=------------------------------------------------------------------------------=
   JOB DONE.
=------------------------------------------------------------------------------=
