
     Program PWSCF v.6.7MaX starts on 13Sep2024 at 23: 4:19 

     This program is part of the open-source Quantum ESPRESSO suite
     for quantum simulation of materials; please cite
         "P. Giannozzi et al., J. Phys.:Condens. Matter 21 395502 (2009);
         "P. Giannozzi et al., J. Phys.:Condens. Matter 29 465901 (2017);
          URL http://www.quantum-espresso.org", 
     in publications or presentations arising from this work. More details at
     http://www.quantum-espresso.org/quote

     Parallel version (MPI), running on     1 processors

     MPI processes distributed on     1 nodes
     Waiting for input...
     Reading input from standard input

     Current dimensions of program PWSCF are:
     Max number of different atomic species (ntypx) = 10
     Max number of k-points (npk) =  40000
     Max angular momentum in pseudopotentials (lmaxx) =  3
     file Cu.upf: wavefunction(s)  4S 3D renormalized
     file Ni.upf: wavefunction(s)  3P 3D renormalized
     file Pt.upf: wavefunction(s)  6S 5D renormalized

     Subspace diagonalization in iterative solution of the eigenvalue problem:
     a serial algorithm will be used


     G-vector sticks info
     --------------------
     sticks:   dense  smooth     PW     G-vecs:    dense   smooth      PW
     Sum         967     967    283                20179    20179    3071



     bravais-lattice index     =            2
     lattice parameter (alat)  =      10.8900  a.u.
     unit-cell volume          =     322.8670 (a.u.)^3
     number of atoms/cell      =            3
     number of atomic types    =            3
     number of electrons       =        39.00
     number of Kohn-Sham states=           24
     kinetic-energy cutoff     =      60.0000  Ry
     charge density cutoff     =     240.0000  Ry
     scf convergence threshold =      1.0E-06
     mixing beta               =       0.6000
     number of iterations used =            8  plain     mixing
     Exchange-correlation= SLA  PW   PBX  PBC
                           (   1   4   3   4   0   0   0)

     celldm(1)=  10.890000  celldm(2)=   0.000000  celldm(3)=   0.000000
     celldm(4)=   0.000000  celldm(5)=   0.000000  celldm(6)=   0.000000

     crystal axes: (cart. coord. in units of alat)
               a(1) = (  -0.500000   0.000000   0.500000 )  
               a(2) = (   0.000000   0.500000   0.500000 )  
               a(3) = (  -0.500000   0.500000   0.000000 )  

     reciprocal axes: (cart. coord. in units 2 pi/alat)
               b(1) = ( -1.000000 -1.000000  1.000000 )  
               b(2) = (  1.000000  1.000000  1.000000 )  
               b(3) = ( -1.000000  1.000000 -1.000000 )  


     PseudoPot. # 1 for Cu read from file:
     ././Cu.upf
     MD5 check sum: cfffd1f38ee05704b3e17f46f1730a6f
     Pseudo is Projector augmented-wave + core cor, Zval = 11.0
     Generated using &quot;atomic&quot; code by A. Dal Corso  v.6.3
     Shape of augmentation charge: PSQ
     Using radial grid of 1199 points,  6 beta functions with: 
                l(1) =   0
                l(2) =   0
                l(3) =   1
                l(4) =   1
                l(5) =   2
                l(6) =   2
     Q(r) pseudized with 0 coefficients 


     PseudoPot. # 2 for Ni read from file:
     ././Ni.upf
     MD5 check sum: 6e86b733589c3ad8389697b807d86aa7
     Pseudo is Projector augmented-wave + core cor, Zval = 18.0
     Generated using &quot;atomic&quot; code by A. Dal Corso  v.6.3
     Shape of augmentation charge: PSQ
     Using radial grid of 1195 points,  6 beta functions with: 
                l(1) =   0
                l(2) =   0
                l(3) =   1
                l(4) =   1
                l(5) =   2
                l(6) =   2
     Q(r) pseudized with 0 coefficients 


     PseudoPot. # 3 for Pt read from file:
     ././Pt.upf
     MD5 check sum: c5224e9cd7a5e36e81f2def9f50bb494
     Pseudo is Projector augmented-wave + core cor, Zval = 10.0
     Generated using &quot;atomic&quot; code by A. Dal Corso  v.6.3
     Shape of augmentation charge: PSQ
     Using radial grid of 1277 points,  6 beta functions with: 
                l(1) =   0
                l(2) =   0
                l(3) =   1
                l(4) =   1
                l(5) =   2
                l(6) =   2
     Q(r) pseudized with 0 coefficients 


     atomic species   valence    mass     pseudopotential
        Cu            11.00    63.54600     Cu( 1.00)
        Ni            18.00    58.69300     Ni( 1.00)
        Pt            10.00   195.08000     Pt( 1.00)

     24 Sym. Ops. (no inversion) found



   Cartesian axes

     site n.     atom                  positions (alat units)
         1           Cu  tau(   1) = (   0.0000000   0.0000000   0.0000000  )
         2           Ni  tau(   2) = (   0.5000000   0.5000000   0.5000000  )
         3           Pt  tau(   3) = (   0.2500000   0.2500000   0.2500000  )

     number of k points=     2  Gaussian smearing, width (Ry)=  0.0100
                       cart. coord. in units 2pi/alat
        k(    1) = (  -0.2500000   0.2500000   0.2500000), wk =   0.5000000
        k(    2) = (   0.2500000  -0.2500000   0.7500000), wk =   1.5000000

     Dense  grid:    20179 G-vectors     FFT dimensions: (  40,  40,  40)

     Estimated max dynamical RAM per process >      80.20 MB

     Check: negative core charge=   -0.000002

     Initial potential from superposition of free atoms

     starting charge   38.99935, renormalised to   39.00000
     Starting wfcs are   28 randomized atomic wfcs
     Checking if some PAW data can be deallocated... 

     total cpu time spent up to now is        1.4 secs

     Self-consistent Calculation

     iteration #  1     ecut=    60.00 Ry     beta= 0.60
     Davidson diagonalization with overlap
     ethr =  1.00E-02,  avg # of iterations =  6.0

     total cpu time spent up to now is        2.2 secs

     total energy              =   -1388.06510649 Ry
     estimated scf accuracy    <       1.93070792 Ry

     iteration #  2     ecut=    60.00 Ry     beta= 0.60
     Davidson diagonalization with overlap
     ethr =  4.95E-03,  avg # of iterations =  7.0

     total cpu time spent up to now is        3.1 secs

     total energy              =   -1386.33520256 Ry
     estimated scf accuracy    <      46.53955419 Ry

     iteration #  3     ecut=    60.00 Ry     beta= 0.60
     Davidson diagonalization with overlap
     ethr =  4.95E-03,  avg # of iterations =  4.5

     total cpu time spent up to now is        4.0 secs

     total energy              =   -1389.41024891 Ry
     estimated scf accuracy    <       0.57231783 Ry

     iteration #  4     ecut=    60.00 Ry     beta= 0.60
     Davidson diagonalization with overlap
     ethr =  1.47E-03,  avg # of iterations =  2.0

     total cpu time spent up to now is        4.7 secs

     total energy              =   -1389.44681025 Ry
     estimated scf accuracy    <       0.09986164 Ry

     iteration #  5     ecut=    60.00 Ry     beta= 0.60
     Davidson diagonalization with overlap
     ethr =  2.56E-04,  avg # of iterations =  2.0

     total cpu time spent up to now is        5.5 secs

     total energy              =   -1389.44938200 Ry
     estimated scf accuracy    <       0.01723195 Ry

     iteration #  6     ecut=    60.00 Ry     beta= 0.60
     Davidson diagonalization with overlap
     ethr =  4.42E-05,  avg # of iterations =  3.5

     total cpu time spent up to now is        6.3 secs

     total energy              =   -1389.45090914 Ry
     estimated scf accuracy    <       0.04215595 Ry

     iteration #  7     ecut=    60.00 Ry     beta= 0.60
     Davidson diagonalization with overlap
     ethr =  4.42E-05,  avg # of iterations =  2.0

     total cpu time spent up to now is        7.1 secs

     total energy              =   -1389.45536046 Ry
     estimated scf accuracy    <       0.01178828 Ry

     iteration #  8     ecut=    60.00 Ry     beta= 0.60
     Davidson diagonalization with overlap
     ethr =  3.02E-05,  avg # of iterations =  1.0

     total cpu time spent up to now is        7.9 secs

     total energy              =   -1389.45622516 Ry
     estimated scf accuracy    <       0.00014566 Ry

     iteration #  9     ecut=    60.00 Ry     beta= 0.60
     Davidson diagonalization with overlap
     ethr =  3.73E-07,  avg # of iterations =  6.0

     total cpu time spent up to now is        8.9 secs

     total energy              =   -1389.45644028 Ry
     estimated scf accuracy    <       0.00063072 Ry

     iteration # 10     ecut=    60.00 Ry     beta= 0.60
     Davidson diagonalization with overlap
     ethr =  3.73E-07,  avg # of iterations =  1.0

     total cpu time spent up to now is        9.7 secs

     total energy              =   -1389.45647025 Ry
     estimated scf accuracy    <       0.00000957 Ry

     iteration # 11     ecut=    60.00 Ry     beta= 0.60
     Davidson diagonalization with overlap
     ethr =  2.45E-08,  avg # of iterations =  3.5

     total cpu time spent up to now is       10.5 secs

     End of self-consistent calculation

          k =-0.2500 0.2500 0.2500 (  2548 PWs)   bands (ev):

   -91.3731 -51.7608 -51.7606 -51.7606   4.6146   7.5855   7.5948   7.5948
     7.8100   7.8100   8.9553   9.1501   9.1501  10.1775  10.1775  10.1992
    10.7070  10.7070  11.2175  11.2175  15.0324  18.7511  18.7511  20.1202

          k = 0.2500-0.2500 0.7500 (  2530 PWs)   bands (ev):

   -91.3729 -51.7609 -51.7606 -51.7606   6.4175   7.0277   7.5527   7.7239
     7.7916   8.4432   8.8382   9.4848   9.6432   9.7695   9.9962  10.1926
    10.5841  10.9081  11.2374  11.3469  12.1662  14.4913  15.3628  19.2368

     the Fermi energy is    11.3496 ev

!    total energy              =   -1389.45647279 Ry

     total all-electron energy =    -43178.956254 Ry
     estimated scf accuracy    <       0.00000065 Ry
     smearing contrib. (-TS)   =      -0.00746960 Ry
     internal energy E=F+TS    =   -1389.44900319 Ry

     The total energy is F=E-TS. E is the sum of the following terms:
     one-electron contribution =    -290.79926905 Ry
     hartree contribution      =     181.49808383 Ry
     xc contribution           =    -102.71256726 Ry
     ewald contribution        =    -311.79126866 Ry
     one-center paw contrib.   =    -865.64398204 Ry

     convergence has been achieved in  11 iterations

     Writing output data file ././cunipt.save/

     init_run     :      1.17s CPU      1.22s WALL (       1 calls)
     electrons    :      8.20s CPU      9.11s WALL (       1 calls)

     Called by init_run:
     wfcinit      :      0.09s CPU      0.10s WALL (       1 calls)
     potinit      :      0.34s CPU      0.35s WALL (       1 calls)
     hinit0       :      0.67s CPU      0.67s WALL (       1 calls)

     Called by electrons:
     c_bands      :      2.84s CPU      2.84s WALL (      11 calls)
     sum_band     :      1.02s CPU      1.51s WALL (      11 calls)
     v_of_rho     :      0.22s CPU      0.22s WALL (      12 calls)
     newd         :      0.65s CPU      1.09s WALL (      12 calls)
     PAW_pot      :      3.82s CPU      3.83s WALL (      12 calls)
     mix_rho      :      0.03s CPU      0.03s WALL (      11 calls)

     Called by c_bands:
     init_us_2    :      0.03s CPU      0.04s WALL (      46 calls)
     cegterg      :      2.72s CPU      2.72s WALL (      22 calls)

     Called by *egterg:
     cdiaghg      :      0.05s CPU      0.05s WALL (      99 calls)
     h_psi        :      1.68s CPU      1.68s WALL (     101 calls)
     s_psi        :      0.25s CPU      0.25s WALL (     101 calls)
     g_psi        :      0.01s CPU      0.01s WALL (      77 calls)

     Called by h_psi:
     h_psi:calbec :      0.23s CPU      0.23s WALL (     101 calls)
     vloc_psi     :      1.19s CPU      1.19s WALL (     101 calls)
     add_vuspsi   :      0.25s CPU      0.25s WALL (     101 calls)

     General routines
     calbec       :      0.32s CPU      0.32s WALL (     123 calls)
     fft          :      0.10s CPU      0.10s WALL (     132 calls)
     ffts         :      0.01s CPU      0.01s WALL (      11 calls)
     fftw         :      1.26s CPU      1.26s WALL (    3416 calls)

     Parallel routines

     PWSCF        :      9.58s CPU     10.55s WALL


   This run was terminated on:  23: 4:30  13Sep2024            

=------------------------------------------------------------------------------=
   JOB DONE.
=------------------------------------------------------------------------------=
