
     Program PWSCF v.6.7MaX starts on 13Sep2024 at 23: 5: 1 

     This program is part of the open-source Quantum ESPRESSO suite
     for quantum simulation of materials; please cite
         "P. Giannozzi et al., J. Phys.:Condens. Matter 21 395502 (2009);
         "P. Giannozzi et al., J. Phys.:Condens. Matter 29 465901 (2017);
          URL http://www.quantum-espresso.org", 
     in publications or presentations arising from this work. More details at
     http://www.quantum-espresso.org/quote

     Parallel version (MPI), running on     1 processors

     MPI processes distributed on     1 nodes
     Waiting for input...
     Reading input from standard input

     Current dimensions of program PWSCF are:
     Max number of different atomic species (ntypx) = 10
     Max number of k-points (npk) =  40000
     Max angular momentum in pseudopotentials (lmaxx) =  3
     file Cu.upf: wavefunction(s)  4S 3D renormalized
     file Ni.upf: wavefunction(s)  3P 3D renormalized
     file Pt.upf: wavefunction(s)  6S 5D renormalized

     Subspace diagonalization in iterative solution of the eigenvalue problem:
     a serial algorithm will be used


     G-vector sticks info
     --------------------
     sticks:   dense  smooth     PW     G-vecs:    dense   smooth      PW
     Sum         967     967    301                20179    20179    3479



     bravais-lattice index     =            2
     lattice parameter (alat)  =      10.8900  a.u.
     unit-cell volume          =     322.8670 (a.u.)^3
     number of atoms/cell      =            3
     number of atomic types    =            3
     number of electrons       =        39.00
     number of Kohn-Sham states=           24
     kinetic-energy cutoff     =      60.0000  Ry
     charge density cutoff     =     240.0000  Ry
     scf convergence threshold =      1.0E-06
     mixing beta               =       0.6000
     number of iterations used =            8  plain     mixing
     Exchange-correlation= SLA  PW   PBX  PBC
                           (   1   4   3   4   0   0   0)

     celldm(1)=  10.890000  celldm(2)=   0.000000  celldm(3)=   0.000000
     celldm(4)=   0.000000  celldm(5)=   0.000000  celldm(6)=   0.000000

     crystal axes: (cart. coord. in units of alat)
               a(1) = (  -0.500000   0.000000   0.500000 )  
               a(2) = (   0.000000   0.500000   0.500000 )  
               a(3) = (  -0.500000   0.500000   0.000000 )  

     reciprocal axes: (cart. coord. in units 2 pi/alat)
               b(1) = ( -1.000000 -1.000000  1.000000 )  
               b(2) = (  1.000000  1.000000  1.000000 )  
               b(3) = ( -1.000000  1.000000 -1.000000 )  


     PseudoPot. # 1 for Cu read from file:
     ././Cu.upf
     MD5 check sum: cfffd1f38ee05704b3e17f46f1730a6f
     Pseudo is Projector augmented-wave + core cor, Zval = 11.0
     Generated using &quot;atomic&quot; code by A. Dal Corso  v.6.3
     Shape of augmentation charge: PSQ
     Using radial grid of 1199 points,  6 beta functions with: 
                l(1) =   0
                l(2) =   0
                l(3) =   1
                l(4) =   1
                l(5) =   2
                l(6) =   2
     Q(r) pseudized with 0 coefficients 


     PseudoPot. # 2 for Ni read from file:
     ././Ni.upf
     MD5 check sum: 6e86b733589c3ad8389697b807d86aa7
     Pseudo is Projector augmented-wave + core cor, Zval = 18.0
     Generated using &quot;atomic&quot; code by A. Dal Corso  v.6.3
     Shape of augmentation charge: PSQ
     Using radial grid of 1195 points,  6 beta functions with: 
                l(1) =   0
                l(2) =   0
                l(3) =   1
                l(4) =   1
                l(5) =   2
                l(6) =   2
     Q(r) pseudized with 0 coefficients 


     PseudoPot. # 3 for Pt read from file:
     ././Pt.upf
     MD5 check sum: c5224e9cd7a5e36e81f2def9f50bb494
     Pseudo is Projector augmented-wave + core cor, Zval = 10.0
     Generated using &quot;atomic&quot; code by A. Dal Corso  v.6.3
     Shape of augmentation charge: PSQ
     Using radial grid of 1277 points,  6 beta functions with: 
                l(1) =   0
                l(2) =   0
                l(3) =   1
                l(4) =   1
                l(5) =   2
                l(6) =   2
     Q(r) pseudized with 0 coefficients 


     atomic species   valence    mass     pseudopotential
        Cu            11.00    63.54600     Cu( 1.00)
        Ni            18.00    58.69300     Ni( 1.00)
        Pt            10.00   195.08000     Pt( 1.00)

     24 Sym. Ops. (no inversion) found



   Cartesian axes

     site n.     atom                  positions (alat units)
         1           Cu  tau(   1) = (   0.0000000   0.0000000   0.0000000  )
         2           Ni  tau(   2) = (   0.5000000   0.5000000   0.5000000  )
         3           Pt  tau(   3) = (   0.2500000   0.2500000   0.2500000  )

     number of k points=    28  Gaussian smearing, width (Ry)=  0.0100
                       cart. coord. in units 2pi/alat
        k(    1) = (  -0.0833333   0.0833333   0.0833333), wk =   0.0185185
        k(    2) = (  -0.2500000   0.2500000  -0.0833333), wk =   0.0555556
        k(    3) = (  -0.4166667   0.4166667  -0.2500000), wk =   0.0555556
        k(    4) = (   0.4166667  -0.4166667   0.5833333), wk =   0.0555556
        k(    5) = (   0.2500000  -0.2500000   0.4166667), wk =   0.0555556
        k(    6) = (   0.0833333  -0.0833333   0.2500000), wk =   0.0555556
        k(    7) = (  -0.0833333   0.4166667   0.0833333), wk =   0.0555556
        k(    8) = (  -0.2500000   0.5833333  -0.0833333), wk =   0.1111111
        k(    9) = (   0.5833333  -0.2500000   0.7500000), wk =   0.1111111
        k(   10) = (   0.4166667  -0.0833333   0.5833333), wk =   0.1111111
        k(   11) = (   0.2500000   0.0833333   0.4166667), wk =   0.1111111
        k(   12) = (  -0.0833333   0.7500000   0.0833333), wk =   0.0555556
        k(   13) = (   0.7500000  -0.0833333   0.9166667), wk =   0.1111111
        k(   14) = (   0.5833333   0.0833333   0.7500000), wk =   0.1111111
        k(   15) = (   0.4166667   0.2500000   0.5833333), wk =   0.1111111
        k(   16) = (  -0.0833333  -0.9166667   0.0833333), wk =   0.0555556
        k(   17) = (  -0.2500000  -0.7500000  -0.0833333), wk =   0.1111111
        k(   18) = (  -0.0833333  -0.5833333   0.0833333), wk =   0.0555556
        k(   19) = (  -0.2500000   0.2500000   0.2500000), wk =   0.0185185
        k(   20) = (  -0.4166667   0.4166667   0.0833333), wk =   0.0555556
        k(   21) = (   0.4166667  -0.4166667   0.9166667), wk =   0.0555556
        k(   22) = (   0.2500000  -0.2500000   0.7500000), wk =   0.0555556
        k(   23) = (  -0.2500000   0.5833333   0.2500000), wk =   0.0555556
        k(   24) = (   0.5833333  -0.2500000   1.0833333), wk =   0.1111111
        k(   25) = (   0.4166667  -0.0833333   0.9166667), wk =   0.1111111
        k(   26) = (  -0.2500000  -1.0833333   0.2500000), wk =   0.0555556
        k(   27) = (  -0.4166667   0.4166667   0.4166667), wk =   0.0185185
        k(   28) = (   0.4166667  -0.4166667   1.2500000), wk =   0.0555556

     Dense  grid:    20179 G-vectors     FFT dimensions: (  40,  40,  40)

     Estimated max dynamical RAM per process >     104.33 MB

     Check: negative core charge=   -0.000002

     Initial potential from superposition of free atoms

     starting charge   38.99935, renormalised to   39.00000
     Starting wfcs are   28 randomized atomic wfcs
     Checking if some PAW data can be deallocated... 

     total cpu time spent up to now is        2.9 secs

     Self-consistent Calculation

     iteration #  1     ecut=    60.00 Ry     beta= 0.60
     Davidson diagonalization with overlap
     ethr =  1.00E-02,  avg # of iterations =  4.6

     total cpu time spent up to now is        7.6 secs

     total energy              =   -1388.13536501 Ry
     estimated scf accuracy    <       1.84566622 Ry

     iteration #  2     ecut=    60.00 Ry     beta= 0.60
     Davidson diagonalization with overlap
     ethr =  4.73E-03,  avg # of iterations =  6.9

     total cpu time spent up to now is       14.1 secs

     total energy              =   -1386.36629067 Ry
     estimated scf accuracy    <      45.85081088 Ry

     iteration #  3     ecut=    60.00 Ry     beta= 0.60
     Davidson diagonalization with overlap
     ethr =  4.73E-03,  avg # of iterations =  4.8

     total cpu time spent up to now is       20.2 secs

     total energy              =   -1389.41322036 Ry
     estimated scf accuracy    <       0.42665311 Ry

     iteration #  4     ecut=    60.00 Ry     beta= 0.60
     Davidson diagonalization with overlap
     ethr =  1.09E-03,  avg # of iterations =  2.0

     total cpu time spent up to now is       24.7 secs

     total energy              =   -1389.45419428 Ry
     estimated scf accuracy    <       0.03956234 Ry

     iteration #  5     ecut=    60.00 Ry     beta= 0.60
     Davidson diagonalization with overlap
     ethr =  1.01E-04,  avg # of iterations =  3.6

     total cpu time spent up to now is       29.4 secs

     total energy              =   -1389.45661161 Ry
     estimated scf accuracy    <       0.01815330 Ry

     iteration #  6     ecut=    60.00 Ry     beta= 0.60
     Davidson diagonalization with overlap
     ethr =  4.65E-05,  avg # of iterations =  2.2

     total cpu time spent up to now is       33.8 secs

     total energy              =   -1389.45950855 Ry
     estimated scf accuracy    <       0.00896863 Ry

     iteration #  7     ecut=    60.00 Ry     beta= 0.60
     Davidson diagonalization with overlap
     ethr =  2.30E-05,  avg # of iterations =  1.5

     total cpu time spent up to now is       37.7 secs

     total energy              =   -1389.46054009 Ry
     estimated scf accuracy    <       0.00208190 Ry

     iteration #  8     ecut=    60.00 Ry     beta= 0.60
     Davidson diagonalization with overlap
     ethr =  5.34E-06,  avg # of iterations =  6.0

     total cpu time spent up to now is       42.5 secs

     total energy              =   -1389.46087791 Ry
     estimated scf accuracy    <       0.00034912 Ry

     iteration #  9     ecut=    60.00 Ry     beta= 0.60
     Davidson diagonalization with overlap
     ethr =  8.95E-07,  avg # of iterations =  3.3

     total cpu time spent up to now is       47.2 secs

     total energy              =   -1389.46094380 Ry
     estimated scf accuracy    <       0.00000744 Ry

     iteration # 10     ecut=    60.00 Ry     beta= 0.60
     Davidson diagonalization with overlap
     ethr =  1.91E-08,  avg # of iterations =  6.1

     total cpu time spent up to now is       55.5 secs

     total energy              =   -1389.46095613 Ry
     estimated scf accuracy    <       0.00001374 Ry

     iteration # 11     ecut=    60.00 Ry     beta= 0.60
     Davidson diagonalization with overlap
     ethr =  1.91E-08,  avg # of iterations =  1.0

     total cpu time spent up to now is       59.5 secs

     total energy              =   -1389.46094999 Ry
     estimated scf accuracy    <       0.00001479 Ry

     iteration # 12     ecut=    60.00 Ry     beta= 0.60
     Davidson diagonalization with overlap
     ethr =  1.91E-08,  avg # of iterations =  3.0

     total cpu time spent up to now is       64.7 secs

     total energy              =   -1389.46095365 Ry
     estimated scf accuracy    <       0.00000540 Ry

     iteration # 13     ecut=    60.00 Ry     beta= 0.60
     Davidson diagonalization with overlap
     ethr =  1.39E-08,  avg # of iterations =  1.0

     total cpu time spent up to now is       68.6 secs

     total energy              =   -1389.46095245 Ry
     estimated scf accuracy    <       0.00000309 Ry

     iteration # 14     ecut=    60.00 Ry     beta= 0.60
     Davidson diagonalization with overlap
     ethr =  7.93E-09,  avg # of iterations =  2.0

     total cpu time spent up to now is       73.0 secs

     End of self-consistent calculation

          k =-0.0833 0.0833 0.0833 (  2556 PWs)   bands (ev):

   -91.2463 -51.6375 -51.6375 -51.6375   3.8425   7.5716   7.5716   7.7187
     7.7445   7.7445   9.0046   9.0153   9.0153  10.4071  10.4071  10.6944
    10.7597  10.7597  11.3010  11.3010  18.9361  20.2373  20.3174  20.3174

          k =-0.2500 0.2500-0.0833 (  2559 PWs)   bands (ev):

   -91.2463 -51.6378 -51.6377 -51.6376   4.3784   7.5908   7.6126   7.6693
     7.7588   7.8220   9.0040   9.0575   9.2211  10.2702  10.3224  10.4025
    10.7303  10.7459  11.2185  11.3565  16.2800  17.6769  19.9492  20.6471

          k =-0.4167 0.4167-0.2500 (  2529 PWs)   bands (ev):

   -91.2460 -51.6378 -51.6376 -51.6376   5.4873   7.5160   7.6114   7.6943
     7.9907   7.9958   8.8393   9.2284   9.4167   9.8772  10.0207  10.0716
    10.7776  10.8538  11.2246  11.3841  13.0799  16.8699  18.1832  19.9683

          k = 0.4167-0.4167 0.5833 (  2523 PWs)   bands (ev):

   -91.2460 -51.6378 -51.6376 -51.6376   6.0386   7.4849   7.6161   7.8454
     7.9605   8.1658   8.5986   9.3767   9.4468   9.7359   9.8152  10.0034
    10.8394  10.8739  11.3259  11.3305  12.0212  16.9990  17.2504  19.6677

          k = 0.2500-0.2500 0.4167 (  2535 PWs)   bands (ev):

   -91.2461 -51.6378 -51.6376 -51.6376   5.0971   7.4755   7.6600   7.6709
     7.8535   7.9990   8.8963   9.2102   9.3594  10.0213  10.1271  10.1701
    10.7775  10.7854  11.2195  11.3668  13.9780  17.4724  18.1000  19.8058

          k = 0.0833-0.0833 0.2500 (  2558 PWs)   bands (ev):

   -91.2463 -51.6378 -51.6376 -51.6376   4.1166   7.5476   7.6439   7.6655
     7.7579   7.7744   8.9115   9.1296   9.1442  10.3595  10.3692  10.5694
    10.7119  10.7383  11.2210  11.3480  17.5671  18.6395  19.4288  20.3082

          k =-0.0833 0.4167 0.0833 (  2548 PWs)   bands (ev):

   -91.2462 -51.6378 -51.6377 -51.6376   4.6518   7.3743   7.5873   7.7648
     7.7902   7.9140   8.7857   9.3532   9.3744  10.2439  10.2997  10.4620
    10.6688  10.7025  11.0855  11.3763  16.1861  17.0835  17.8016  19.4660

          k =-0.2500 0.5833-0.0833 (  2531 PWs)   bands (ev):

   -91.2461 -51.6378 -51.6376 -51.6375   5.5976   7.1781   7.5968   7.7562
     7.8199   8.1989   8.8164   9.5044   9.6295   9.8723  10.1653  10.2654
    10.6872  10.8471  11.0557  11.3988  13.9248  15.2484  16.4024  19.8263

          k = 0.5833-0.2500 0.7500 (  2534 PWs)   bands (ev):

   -91.2461 -51.6379 -51.6377 -51.6376   6.4447   7.1803   7.6688   7.7123
     7.8456   8.3662   9.0335   9.3787   9.5582   9.7972   9.9944  10.0893
    10.6332  11.0150  11.2976  11.4293  11.8927  14.7352  15.6931  19.8994

          k = 0.4167-0.0833 0.5833 (  2534 PWs)   bands (ev):

   -91.2461 -51.6378 -51.6376 -51.6376   5.9232   7.2734   7.6643   7.7125
     7.8381   8.1647   9.0307   9.3446   9.6364   9.7552  10.0834  10.1244
    10.6477  10.9505  11.0685  11.4427  13.1435  14.5348  16.7747  20.3660

          k = 0.2500 0.0833 0.4167 (  2546 PWs)   bands (ev):

   -91.2462 -51.6378 -51.6377 -51.6376   4.8859   7.4220   7.6479   7.7063
     7.7896   7.9507   8.9026   9.2464   9.3994  10.0992  10.2394  10.2819
    10.7229  10.7675  11.1249  11.3885  15.0633  16.4413  18.3778  20.1853

          k =-0.0833 0.7500 0.0833 (  2528 PWs)   bands (ev):

   -91.2460 -51.6379 -51.6376 -51.6375   6.3316   6.8917   7.4044   7.8562
     7.8598   8.5462   8.5544   9.6929   9.7411   9.8404  10.2157  10.4449
    10.7350  10.9755  11.0817  11.4373  13.4641  14.3048  14.5136  19.0622

          k = 0.7500-0.0833 0.9167 (  2529 PWs)   bands (ev):

   -91.2460 -51.6380 -51.6376 -51.6375   6.8026   7.1947   7.4170   7.6860
     7.8932   8.6013   8.8798   9.2642   9.7805   9.9485  10.1474  10.3625
    10.5310  11.2953  11.4811  11.7833  12.1477  13.0002  13.8825  19.5858

          k = 0.5833 0.0833 0.7500 (  2531 PWs)   bands (ev):

   -91.2460 -51.6379 -51.6376 -51.6375   6.6641   7.1980   7.6067   7.6740
     7.8212   8.5116   9.0885   9.2470   9.7584   9.8713  10.0682  10.1535
    10.5013  11.0604  11.3453  11.5074  12.1018  13.2857  15.1904  19.9176

          k = 0.4167 0.2500 0.5833 (  2528 PWs)   bands (ev):

   -91.2460 -51.6378 -51.6376 -51.6376   5.9819   7.3521   7.6529   7.7479
     7.8934   8.1778   8.9094   9.3059   9.5346   9.7335   9.9556  10.0579
    10.7521  10.9029  11.2204  11.3919  12.3746  15.9439  16.9329  19.8650

          k =-0.0833-0.9167 0.0833 (  2521 PWs)   bands (ev):

   -91.2460 -51.6380 -51.6375 -51.6375   6.7519   7.1991   7.3830   7.8100
     7.8801   8.2766   8.9396   9.3899   9.7726   9.8238  10.2109  10.4420
    10.7120  11.3694  11.4193  11.6841  12.3681  13.3002  13.7187  19.0214

          k =-0.2500-0.7500-0.0833 (  2522 PWs)   bands (ev):

   -91.2460 -51.6378 -51.6376 -51.6375   6.4204   6.9585   7.4932   7.7685
     7.8690   8.5215   8.7279   9.5815   9.7362   9.7992  10.1442  10.3303
    10.6067  11.0365  11.1966  11.4574  12.9011  14.1040  14.7725  19.6520

          k =-0.0833-0.5833 0.0833 (  2537 PWs)   bands (ev):

   -91.2461 -51.6378 -51.6376 -51.6376   5.4150   7.1189   7.5078   7.8159
     7.8294   8.1973   8.6837   9.6032   9.6225  10.0506  10.2403  10.4320
    10.6967  10.7258  10.9649  11.3850  14.8137  15.6890  15.8718  19.1801

          k =-0.2500 0.2500 0.2500 (  2548 PWs)   bands (ev):

   -91.2462 -51.6378 -51.6376 -51.6376   4.6250   7.6194   7.6244   7.6244
     7.8454   7.8454   8.9665   9.1659   9.1659  10.2144  10.2144  10.2669
    10.7589  10.7589  11.3052  11.3052  15.0620  18.7716  18.7716  20.1275

          k =-0.4167 0.4167 0.0833 (  2542 PWs)   bands (ev):

   -91.2462 -51.6378 -51.6377 -51.6376   5.3296   7.4377   7.6440   7.6806
     7.9176   7.9270   9.0737   9.1454   9.4966   9.9074  10.1526  10.1553
    10.7045  10.8667  11.0816  11.4242  14.0367  15.4650  18.3324  20.1079

          k = 0.4167-0.4167 0.9167 (  2535 PWs)   bands (ev):

   -91.2461 -51.6379 -51.6376 -51.6376   6.3124   7.3064   7.6560   7.6908
     7.8129   8.2687   9.1871   9.2393   9.6187   9.8637   9.9901  10.1038
    10.6086  10.8911  11.1857  11.4659  12.5365  13.8480  16.4846  19.5422

          k = 0.2500-0.2500 0.7500 (  2530 PWs)   bands (ev):

   -91.2460 -51.6379 -51.6376 -51.6376   6.4350   7.0557   7.5794   7.7573
     7.8236   8.4712   8.8502   9.4985   9.6656   9.8066  10.0518  10.2220
    10.6583  10.9612  11.3094  11.4223  12.2139  14.5174  15.3808  19.2539

          k =-0.2500 0.5833 0.2500 (  2531 PWs)   bands (ev):

   -91.2461 -51.6378 -51.6376 -51.6376   5.7417   7.2478   7.6701   7.7103
     7.8365   8.2120   8.8693   9.4013   9.5896   9.7767  10.0552  10.1652
    10.7737  10.8183  11.1869  11.3750  13.0217  16.3065  16.3302  19.3976

          k = 0.5833-0.2500 1.0833 (  2523 PWs)   bands (ev):

   -91.2460 -51.6378 -51.6376 -51.6375   6.5480   7.0776   7.6050   7.6927
     7.8724   8.4510   8.9961   9.4269   9.6696   9.7934  10.0943  10.1821
    10.5203  11.1062  11.2350  11.5002  12.4078  13.7052  15.0337  20.8380

          k = 0.4167-0.0833 0.9167 (  2527 PWs)   bands (ev):

   -91.2460 -51.6379 -51.6376 -51.6375   6.8965   7.0768   7.5253   7.6368
     7.9295   8.7117   8.9751   9.2352   9.7808   9.9202  10.1102  10.1793
    10.4358  11.2504  11.5380  11.7579  12.0577  12.8972  13.8384  20.9265

          k =-0.2500-1.0833 0.2500 (  2541 PWs)   bands (ev):

   -91.2461 -51.6380 -51.6376 -51.6376   6.7508   7.2347   7.5061   7.6971
     7.7852   8.7266   8.8182   9.2431   9.8419   9.9434  10.0712  10.2966
    10.5385  11.1589  11.4655  11.5943  11.9175  12.9897  14.8340  19.2122

          k =-0.4167 0.4167 0.4167 (  2521 PWs)   bands (ev):

   -91.2460 -51.6378 -51.6375 -51.6375   5.7537   7.5967   7.5967   7.7378
     8.0824   8.0824   8.5133   9.3652   9.3652   9.8376   9.8376  10.0108
    10.8485  10.8485  11.3290  11.3290  12.4080  17.7922  17.7922  19.8988

          k = 0.4167-0.4167 1.2500 (  2524 PWs)   bands (ev):

   -91.2460 -51.6379 -51.6375 -51.6375   6.2401   7.3353   7.6571   7.7675
     7.8667   8.2306   8.9717   9.3398   9.4720   9.8294   9.8541  10.0397
    10.7291  10.9216  11.2582  11.3978  11.9881  15.3766  16.7651  19.5541

     the Fermi energy is    11.4781 ev

!    total energy              =   -1389.46095287 Ry

     total all-electron energy =    -43178.960734 Ry
     estimated scf accuracy    <          3.0E-09 Ry
     smearing contrib. (-TS)   =      -0.00491868 Ry
     internal energy E=F+TS    =   -1389.45603419 Ry

     The total energy is F=E-TS. E is the sum of the following terms:
     one-electron contribution =    -290.95001243 Ry
     hartree contribution      =     181.65949907 Ry
     xc contribution           =    -102.73286106 Ry
     ewald contribution        =    -311.79126866 Ry
     one-center paw contrib.   =    -865.64139110 Ry

     convergence has been achieved in  14 iterations

     Writing output data file ././cunipt.save/

     init_run     :      2.58s CPU      2.65s WALL (       1 calls)
     electrons    :     68.69s CPU     70.14s WALL (       1 calls)

     Called by init_run:
     wfcinit      :      1.46s CPU      1.47s WALL (       1 calls)
     potinit      :      0.35s CPU      0.37s WALL (       1 calls)
     hinit0       :      0.70s CPU      0.70s WALL (       1 calls)

     Called by electrons:
     c_bands      :     54.27s CPU     54.45s WALL (      14 calls)
     sum_band     :      8.49s CPU      9.18s WALL (      14 calls)
     v_of_rho     :      0.30s CPU      0.30s WALL (      15 calls)
     newd         :      0.84s CPU      1.44s WALL (      15 calls)
     PAW_pot      :      5.13s CPU      5.15s WALL (      15 calls)
     mix_rho      :      0.05s CPU      0.05s WALL (      14 calls)

     Called by c_bands:
     init_us_2    :      0.67s CPU      0.68s WALL (     812 calls)
     cegterg      :     51.95s CPU     52.12s WALL (     392 calls)

     Called by *egterg:
     cdiaghg      :      0.95s CPU      0.95s WALL (    1737 calls)
     h_psi        :     31.95s CPU     32.07s WALL (    1765 calls)
     s_psi        :      4.77s CPU      4.78s WALL (    1765 calls)
     g_psi        :      0.19s CPU      0.19s WALL (    1345 calls)

     Called by h_psi:
     h_psi:calbec :      4.43s CPU      4.44s WALL (    1765 calls)
     vloc_psi     :     22.61s CPU     22.70s WALL (    1765 calls)
     add_vuspsi   :      4.79s CPU      4.81s WALL (    1765 calls)

     General routines
     calbec       :      6.08s CPU      6.10s WALL (    2157 calls)
     fft          :      0.14s CPU      0.14s WALL (     165 calls)
     ffts         :      0.01s CPU      0.01s WALL (      14 calls)
     fftw         :     24.35s CPU     24.45s WALL (   59930 calls)

     Parallel routines

     PWSCF        :   1m11.50s CPU   1m13.05s WALL


   This run was terminated on:  23: 6:15  13Sep2024            

=------------------------------------------------------------------------------=
   JOB DONE.
=------------------------------------------------------------------------------=
