
     Program PWSCF v.6.7MaX starts on 13Sep2024 at 23: 6:15 

     This program is part of the open-source Quantum ESPRESSO suite
     for quantum simulation of materials; please cite
         "P. Giannozzi et al., J. Phys.:Condens. Matter 21 395502 (2009);
         "P. Giannozzi et al., J. Phys.:Condens. Matter 29 465901 (2017);
          URL http://www.quantum-espresso.org", 
     in publications or presentations arising from this work. More details at
     http://www.quantum-espresso.org/quote

     Parallel version (MPI), running on     1 processors

     MPI processes distributed on     1 nodes
     Waiting for input...
     Reading input from standard input

     Current dimensions of program PWSCF are:
     Max number of different atomic species (ntypx) = 10
     Max number of k-points (npk) =  40000
     Max angular momentum in pseudopotentials (lmaxx) =  3
     file Cu.upf: wavefunction(s)  4S 3D renormalized
     file Ni.upf: wavefunction(s)  3P 3D renormalized
     file Pt.upf: wavefunction(s)  6S 5D renormalized

     Subspace diagonalization in iterative solution of the eigenvalue problem:
     a serial algorithm will be used


     G-vector sticks info
     --------------------
     sticks:   dense  smooth     PW     G-vecs:    dense   smooth      PW
     Sum         967     967    301                20179    20179    3479



     bravais-lattice index     =            2
     lattice parameter (alat)  =      10.8900  a.u.
     unit-cell volume          =     322.8670 (a.u.)^3
     number of atoms/cell      =            3
     number of atomic types    =            3
     number of electrons       =        39.00
     number of Kohn-Sham states=           24
     kinetic-energy cutoff     =      60.0000  Ry
     charge density cutoff     =     240.0000  Ry
     scf convergence threshold =      1.0E-06
     mixing beta               =       0.6000
     number of iterations used =            8  plain     mixing
     Exchange-correlation= SLA  PW   PBX  PBC
                           (   1   4   3   4   0   0   0)

     celldm(1)=  10.890000  celldm(2)=   0.000000  celldm(3)=   0.000000
     celldm(4)=   0.000000  celldm(5)=   0.000000  celldm(6)=   0.000000

     crystal axes: (cart. coord. in units of alat)
               a(1) = (  -0.500000   0.000000   0.500000 )  
               a(2) = (   0.000000   0.500000   0.500000 )  
               a(3) = (  -0.500000   0.500000   0.000000 )  

     reciprocal axes: (cart. coord. in units 2 pi/alat)
               b(1) = ( -1.000000 -1.000000  1.000000 )  
               b(2) = (  1.000000  1.000000  1.000000 )  
               b(3) = ( -1.000000  1.000000 -1.000000 )  


     PseudoPot. # 1 for Cu read from file:
     ././Cu.upf
     MD5 check sum: cfffd1f38ee05704b3e17f46f1730a6f
     Pseudo is Projector augmented-wave + core cor, Zval = 11.0
     Generated using &quot;atomic&quot; code by A. Dal Corso  v.6.3
     Shape of augmentation charge: PSQ
     Using radial grid of 1199 points,  6 beta functions with: 
                l(1) =   0
                l(2) =   0
                l(3) =   1
                l(4) =   1
                l(5) =   2
                l(6) =   2
     Q(r) pseudized with 0 coefficients 


     PseudoPot. # 2 for Ni read from file:
     ././Ni.upf
     MD5 check sum: 6e86b733589c3ad8389697b807d86aa7
     Pseudo is Projector augmented-wave + core cor, Zval = 18.0
     Generated using &quot;atomic&quot; code by A. Dal Corso  v.6.3
     Shape of augmentation charge: PSQ
     Using radial grid of 1195 points,  6 beta functions with: 
                l(1) =   0
                l(2) =   0
                l(3) =   1
                l(4) =   1
                l(5) =   2
                l(6) =   2
     Q(r) pseudized with 0 coefficients 


     PseudoPot. # 3 for Pt read from file:
     ././Pt.upf
     MD5 check sum: c5224e9cd7a5e36e81f2def9f50bb494
     Pseudo is Projector augmented-wave + core cor, Zval = 10.0
     Generated using &quot;atomic&quot; code by A. Dal Corso  v.6.3
     Shape of augmentation charge: PSQ
     Using radial grid of 1277 points,  6 beta functions with: 
                l(1) =   0
                l(2) =   0
                l(3) =   1
                l(4) =   1
                l(5) =   2
                l(6) =   2
     Q(r) pseudized with 0 coefficients 


     atomic species   valence    mass     pseudopotential
        Cu            11.00    63.54600     Cu( 1.00)
        Ni            18.00    58.69300     Ni( 1.00)
        Pt            10.00   195.08000     Pt( 1.00)

     24 Sym. Ops. (no inversion) found



   Cartesian axes

     site n.     atom                  positions (alat units)
         1           Cu  tau(   1) = (   0.0000000   0.0000000   0.0000000  )
         2           Ni  tau(   2) = (   0.5000000   0.5000000   0.5000000  )
         3           Pt  tau(   3) = (   0.2500000   0.2500000   0.2500000  )

     number of k points=    60  Gaussian smearing, width (Ry)=  0.0100
                       cart. coord. in units 2pi/alat
        k(    1) = (  -0.0625000   0.0625000   0.0625000), wk =   0.0078125
        k(    2) = (  -0.1875000   0.1875000  -0.0625000), wk =   0.0234375
        k(    3) = (  -0.3125000   0.3125000  -0.1875000), wk =   0.0234375
        k(    4) = (  -0.4375000   0.4375000  -0.3125000), wk =   0.0234375
        k(    5) = (   0.4375000  -0.4375000   0.5625000), wk =   0.0234375
        k(    6) = (   0.3125000  -0.3125000   0.4375000), wk =   0.0234375
        k(    7) = (   0.1875000  -0.1875000   0.3125000), wk =   0.0234375
        k(    8) = (   0.0625000  -0.0625000   0.1875000), wk =   0.0234375
        k(    9) = (  -0.0625000   0.3125000   0.0625000), wk =   0.0234375
        k(   10) = (  -0.1875000   0.4375000  -0.0625000), wk =   0.0468750
        k(   11) = (  -0.3125000   0.5625000  -0.1875000), wk =   0.0468750
        k(   12) = (   0.5625000  -0.3125000   0.6875000), wk =   0.0468750
        k(   13) = (   0.4375000  -0.1875000   0.5625000), wk =   0.0468750
        k(   14) = (   0.3125000  -0.0625000   0.4375000), wk =   0.0468750
        k(   15) = (   0.1875000   0.0625000   0.3125000), wk =   0.0468750
        k(   16) = (  -0.0625000   0.5625000   0.0625000), wk =   0.0234375
        k(   17) = (  -0.1875000   0.6875000  -0.0625000), wk =   0.0468750
        k(   18) = (   0.6875000  -0.1875000   0.8125000), wk =   0.0468750
        k(   19) = (   0.5625000  -0.0625000   0.6875000), wk =   0.0468750
        k(   20) = (   0.4375000   0.0625000   0.5625000), wk =   0.0468750
        k(   21) = (   0.3125000   0.1875000   0.4375000), wk =   0.0468750
        k(   22) = (  -0.0625000   0.8125000   0.0625000), wk =   0.0234375
        k(   23) = (   0.8125000  -0.0625000   0.9375000), wk =   0.0468750
        k(   24) = (   0.6875000   0.0625000   0.8125000), wk =   0.0468750
        k(   25) = (   0.5625000   0.1875000   0.6875000), wk =   0.0468750
        k(   26) = (   0.4375000   0.3125000   0.5625000), wk =   0.0468750
        k(   27) = (  -0.0625000  -0.9375000   0.0625000), wk =   0.0234375
        k(   28) = (  -0.1875000  -0.8125000  -0.0625000), wk =   0.0468750
        k(   29) = (  -0.3125000  -0.6875000  -0.1875000), wk =   0.0468750
        k(   30) = (  -0.0625000  -0.6875000   0.0625000), wk =   0.0234375
        k(   31) = (  -0.1875000  -0.5625000  -0.0625000), wk =   0.0468750
        k(   32) = (  -0.0625000  -0.4375000   0.0625000), wk =   0.0234375
        k(   33) = (  -0.1875000   0.1875000   0.1875000), wk =   0.0078125
        k(   34) = (  -0.3125000   0.3125000   0.0625000), wk =   0.0234375
        k(   35) = (  -0.4375000   0.4375000  -0.0625000), wk =   0.0234375
        k(   36) = (   0.4375000  -0.4375000   0.8125000), wk =   0.0234375
        k(   37) = (   0.3125000  -0.3125000   0.6875000), wk =   0.0234375
        k(   38) = (   0.1875000  -0.1875000   0.5625000), wk =   0.0234375
        k(   39) = (  -0.1875000   0.4375000   0.1875000), wk =   0.0234375
        k(   40) = (  -0.3125000   0.5625000   0.0625000), wk =   0.0468750
        k(   41) = (   0.5625000  -0.3125000   0.9375000), wk =   0.0468750
        k(   42) = (   0.4375000  -0.1875000   0.8125000), wk =   0.0468750
        k(   43) = (   0.3125000  -0.0625000   0.6875000), wk =   0.0468750
        k(   44) = (  -0.1875000   0.6875000   0.1875000), wk =   0.0234375
        k(   45) = (   0.6875000  -0.1875000   1.0625000), wk =   0.0468750
        k(   46) = (   0.5625000  -0.0625000   0.9375000), wk =   0.0468750
        k(   47) = (   0.4375000   0.0625000   0.8125000), wk =   0.0468750
        k(   48) = (  -0.1875000  -1.0625000   0.1875000), wk =   0.0234375
        k(   49) = (  -0.3125000  -0.9375000   0.0625000), wk =   0.0468750
        k(   50) = (  -0.1875000  -0.8125000   0.1875000), wk =   0.0234375
        k(   51) = (  -0.3125000   0.3125000   0.3125000), wk =   0.0078125
        k(   52) = (  -0.4375000   0.4375000   0.1875000), wk =   0.0234375
        k(   53) = (   0.4375000  -0.4375000   1.0625000), wk =   0.0234375
        k(   54) = (   0.3125000  -0.3125000   0.9375000), wk =   0.0234375
        k(   55) = (  -0.3125000   0.5625000   0.3125000), wk =   0.0234375
        k(   56) = (   0.5625000  -0.3125000   1.1875000), wk =   0.0468750
        k(   57) = (   0.4375000  -0.1875000   1.0625000), wk =   0.0468750
        k(   58) = (  -0.3125000  -1.1875000   0.3125000), wk =   0.0234375
        k(   59) = (  -0.4375000   0.4375000   0.4375000), wk =   0.0078125
        k(   60) = (   0.4375000  -0.4375000   1.3125000), wk =   0.0234375

     Dense  grid:    20179 G-vectors     FFT dimensions: (  40,  40,  40)

     Estimated max dynamical RAM per process >     134.02 MB

     Check: negative core charge=   -0.000002

     Initial potential from superposition of free atoms

     starting charge   38.99935, renormalised to   39.00000
     Starting wfcs are   28 randomized atomic wfcs
     Checking if some PAW data can be deallocated... 

     total cpu time spent up to now is        4.5 secs

     Self-consistent Calculation

     iteration #  1     ecut=    60.00 Ry     beta= 0.60
     Davidson diagonalization with overlap
     ethr =  1.00E-02,  avg # of iterations =  4.6

     total cpu time spent up to now is       13.7 secs

     total energy              =   -1388.13626467 Ry
     estimated scf accuracy    <       1.84428645 Ry

     iteration #  2     ecut=    60.00 Ry     beta= 0.60
     Davidson diagonalization with overlap
     ethr =  4.73E-03,  avg # of iterations =  6.8

     total cpu time spent up to now is       26.3 secs

     total energy              =   -1386.36568054 Ry
     estimated scf accuracy    <      45.85783434 Ry

     iteration #  3     ecut=    60.00 Ry     beta= 0.60
     Davidson diagonalization with overlap
     ethr =  4.73E-03,  avg # of iterations =  4.6

     total cpu time spent up to now is       38.5 secs

     total energy              =   -1389.41253444 Ry
     estimated scf accuracy    <       0.42630796 Ry

     iteration #  4     ecut=    60.00 Ry     beta= 0.60
     Davidson diagonalization with overlap
     ethr =  1.09E-03,  avg # of iterations =  2.0

     total cpu time spent up to now is       46.9 secs

     total energy              =   -1389.45371193 Ry
     estimated scf accuracy    <       0.03949940 Ry

     iteration #  5     ecut=    60.00 Ry     beta= 0.60
     Davidson diagonalization with overlap
     ethr =  1.01E-04,  avg # of iterations =  4.0

     total cpu time spent up to now is       55.9 secs

     total energy              =   -1389.45647794 Ry
     estimated scf accuracy    <       0.01778972 Ry

     iteration #  6     ecut=    60.00 Ry     beta= 0.60
     Davidson diagonalization with overlap
     ethr =  4.56E-05,  avg # of iterations =  2.2

     total cpu time spent up to now is       64.2 secs

     total energy              =   -1389.45925313 Ry
     estimated scf accuracy    <       0.00918598 Ry

     iteration #  7     ecut=    60.00 Ry     beta= 0.60
     Davidson diagonalization with overlap
     ethr =  2.36E-05,  avg # of iterations =  1.7

     total cpu time spent up to now is       71.5 secs

     total energy              =   -1389.46028686 Ry
     estimated scf accuracy    <       0.00261228 Ry

     iteration #  8     ecut=    60.00 Ry     beta= 0.60
     Davidson diagonalization with overlap
     ethr =  6.70E-06,  avg # of iterations =  4.0

     total cpu time spent up to now is       80.5 secs

     total energy              =   -1389.46064728 Ry
     estimated scf accuracy    <       0.00049009 Ry

     iteration #  9     ecut=    60.00 Ry     beta= 0.60
     Davidson diagonalization with overlap
     ethr =  1.26E-06,  avg # of iterations =  3.8

     total cpu time spent up to now is       89.8 secs

     total energy              =   -1389.46072935 Ry
     estimated scf accuracy    <       0.00000235 Ry

     iteration # 10     ecut=    60.00 Ry     beta= 0.60
     Davidson diagonalization with overlap
     ethr =  6.02E-09,  avg # of iterations =  9.4

     total cpu time spent up to now is      114.8 secs

     total energy              =   -1389.46074775 Ry
     estimated scf accuracy    <       0.00001277 Ry

     iteration # 11     ecut=    60.00 Ry     beta= 0.60
     Davidson diagonalization with overlap
     ethr =  6.02E-09,  avg # of iterations =  1.1

     total cpu time spent up to now is      122.1 secs

     total energy              =   -1389.46074309 Ry
     estimated scf accuracy    <       0.00001135 Ry

     iteration # 12     ecut=    60.00 Ry     beta= 0.60
     Davidson diagonalization with overlap
     ethr =  6.02E-09,  avg # of iterations =  3.8

     total cpu time spent up to now is      133.2 secs

     total energy              =   -1389.46074531 Ry
     estimated scf accuracy    <       0.00000188 Ry

     iteration # 13     ecut=    60.00 Ry     beta= 0.60
     Davidson diagonalization with overlap
     ethr =  4.83E-09,  avg # of iterations =  1.0

     total cpu time spent up to now is      140.3 secs

     End of self-consistent calculation

          k =-0.0625 0.0625 0.0625 (  2568 PWs)   bands (ev):

   -91.2485 -51.6396 -51.6396 -51.6395   3.7970   7.5622   7.5622   7.7268
     7.7414   7.7414   9.0020   9.0076   9.0076  10.4149  10.4149  10.7267
    10.7637  10.7637  11.2990  11.2990  19.4255  20.2675  20.5298  20.5298

          k =-0.1875 0.1875-0.0625 (  2561 PWs)   bands (ev):

   -91.2484 -51.6398 -51.6396 -51.6396   4.1044   7.5906   7.6182   7.6648
     7.7398   7.7749   9.0013   9.0316   9.1364  10.3533  10.3712  10.5398
    10.7244  10.7530  11.2490  11.3324  17.4140  18.4620  20.4097  20.5937

          k =-0.3125 0.3125-0.1875 (  2542 PWs)   bands (ev):

   -91.2483 -51.6398 -51.6396 -51.6396   4.8138   7.5607   7.6153   7.6640
     7.8445   7.8998   8.9620   9.1388   9.2823  10.1240  10.2018  10.2175
    10.7556  10.7747  11.2316  11.3581  14.6439  17.6227  19.0361  20.2515

          k =-0.4375 0.4375-0.3125 (  2530 PWs)   bands (ev):

   -91.2481 -51.6399 -51.6396 -51.6396   5.6787   7.5422   7.6010   7.7178
     8.0329   8.0439   8.6952   9.2883   9.4197   9.8264   9.9311  10.0339
    10.8071  10.8608  11.2660  11.3663  12.6222  17.1576  17.9613  19.8853

          k = 0.4375-0.4375 0.5625 (  2522 PWs)   bands (ev):

   -91.2481 -51.6398 -51.6396 -51.6396   6.0170   7.5274   7.6035   7.8601
     8.0007   8.1483   8.4980   9.3934   9.4365   9.7413   9.7888   9.9972
    10.8498  10.8694  11.3271  11.3292  12.0108  17.2596  17.4165  19.7340

          k = 0.3125-0.3125 0.4375 (  2532 PWs)   bands (ev):

   -91.2482 -51.6398 -51.6396 -51.6396   5.4059   7.5111   7.6303   7.6843
     7.9351   8.0488   8.7987   9.2436   9.3827   9.9170  10.0191  10.0820
    10.8038  10.8188  11.2610  11.3567  13.1730  17.5154  17.9403  19.8213

          k = 0.1875-0.1875 0.3125 (  2552 PWs)   bands (ev):

   -91.2483 -51.6398 -51.6397 -51.6396   4.5426   7.5457   7.6453   7.6595
     7.7881   7.8576   8.9512   9.1511   9.2264  10.2249  10.2731  10.3259
    10.7389  10.7521  11.2301  11.3475  15.5014  18.1842  18.9592  20.1871

          k = 0.0625-0.0625 0.1875 (  2560 PWs)   bands (ev):

   -91.2484 -51.6397 -51.6396 -51.6396   3.9526   7.5565   7.6204   7.6764
     7.7486   7.7542   8.9451   9.0757   9.0820  10.3924  10.3946  10.6475
    10.7311  10.7477  11.2515  11.3304  18.4201  19.2451  19.7608  20.5719

          k =-0.0625 0.3125 0.0625 (  2561 PWs)   bands (ev):

   -91.2484 -51.6399 -51.6396 -51.6396   4.2597   7.4946   7.6107   7.7209
     7.7682   7.7929   8.8519   9.2129   9.2230  10.3402  10.3519  10.5578
    10.6833  10.7117  11.1641  11.3607  17.3554  18.0206  18.9026  19.7009

          k =-0.1875 0.4375-0.0625 (  2543 PWs)   bands (ev):

   -91.2483 -51.6398 -51.6396 -51.6396   4.8409   7.3658   7.6133   7.7401
     7.7850   7.9629   8.8313   9.3328   9.4201  10.1465  10.2638  10.3519
    10.7060  10.7355  11.0911  11.3802  15.4605  16.4761  17.9312  19.8505

          k =-0.3125 0.5625-0.1875 (  2530 PWs)   bands (ev):

   -91.2481 -51.6398 -51.6396 -51.6396   5.6826   7.2787   7.6732   7.7057
     7.8347   8.1688   8.9023   9.3635   9.5751   9.7994  10.0677  10.1559
    10.7361  10.8546  11.1534  11.3891  13.1497  15.9124  16.8257  19.7242

          k = 0.5625-0.3125 0.6875 (  2530 PWs)   bands (ev):

   -91.2481 -51.6399 -51.6396 -51.6396   6.2578   7.2967   7.6574   7.7815
     7.8593   8.2583   8.9448   9.3798   9.4619   9.7721   9.9025  10.0416
    10.7298  10.9389  11.2866  11.3744  11.9313  15.6228  16.4003  19.7536

          k = 0.4375-0.1875 0.5625 (  2528 PWs)   bands (ev):

   -91.2481 -51.6398 -51.6396 -51.6396   5.9280   7.3451   7.6550   7.7180
     7.8872   8.1409   8.9998   9.2806   9.5644   9.7512  10.0009  10.0772
    10.7117  10.9160  11.1554  11.4165  12.6280  15.4319  17.0876  20.0034

          k = 0.3125-0.0625 0.4375 (  2540 PWs)   bands (ev):

   -91.2482 -51.6398 -51.6397 -51.6396   5.0949   7.4108   7.6581   7.6939
     7.8099   7.9690   8.9616   9.2297   9.4570  10.0075  10.2019  10.2269
    10.7114  10.8123  11.0944  11.4039  14.6602  15.7813  18.2875  20.4951

          k = 0.1875 0.0625 0.3125 (  2560 PWs)   bands (ev):

   -91.2484 -51.6398 -51.6397 -51.6396   4.4038   7.5239   7.6317   7.6863
     7.7589   7.8319   8.9204   9.1530   9.2523  10.2724  10.3245  10.4254
    10.7145  10.7388  11.1843  11.3620  16.4260  17.4667  19.4220  20.3118

          k =-0.0625 0.5625 0.0625 (  2536 PWs)   bands (ev):

   -91.2482 -51.6398 -51.6396 -51.6396   5.2874   7.1427   7.5076   7.8167
     7.8249   8.1527   8.6827   9.5876   9.5987  10.1072  10.2553  10.4667
    10.6756  10.6966  10.9545  11.3803  15.2015  15.8176  16.0321  19.1481

          k =-0.1875 0.6875-0.0625 (  2533 PWs)   bands (ev):

   -91.2481 -51.6399 -51.6396 -51.6396   6.0403   6.9948   7.4836   7.8000
     7.8533   8.4067   8.6874   9.6771   9.7171   9.8242  10.1856  10.3711
    10.6706  10.9052  11.0627  11.4091  13.6227  14.6077  15.1564  19.4340

          k = 0.6875-0.1875 0.8125 (  2530 PWs)   bands (ev):

   -91.2481 -51.6399 -51.6396 -51.6396   6.6554   7.0414   7.5481   7.7292
     7.8385   8.5661   8.8651   9.3954   9.7521   9.8502  10.0726  10.2438
    10.5673  11.0864  11.3598  11.5299  11.9909  13.8621  14.9352  19.5355

          k = 0.5625-0.0625 0.6875 (  2537 PWs)   bands (ev):

   -91.2482 -51.6399 -51.6397 -51.6396   6.5217   7.2427   7.6278   7.7025
     7.7871   8.4006   9.1470   9.2591   9.6909   9.8786  10.0391  10.1302
    10.5402  10.9520  11.2564  11.4826  12.3851  13.3797  15.7377  19.7925

          k = 0.4375 0.0625 0.5625 (  2533 PWs)   bands (ev):

   -91.2482 -51.6398 -51.6396 -51.6396   5.8902   7.3030   7.6618   7.6991
     7.8504   8.1271   9.0705   9.3057   9.6378   9.7636  10.0862  10.1177
    10.6456  10.9473  11.0476  11.4464  13.2701  14.3983  17.0038  20.1870

          k = 0.3125 0.1875 0.4375 (  2532 PWs)   bands (ev):

   -91.2482 -51.6398 -51.6396 -51.6396   5.2027   7.4477   7.6527   7.6820
     7.8559   8.0066   8.9263   9.2129   9.4124   9.9735  10.1243  10.1628
    10.7529  10.8141  11.1785  11.3832  13.8610  16.7687  18.1649  19.9666

          k =-0.0625 0.8125 0.0625 (  2524 PWs)   bands (ev):

   -91.2481 -51.6400 -51.6395 -51.6395   6.6715   6.8264   7.3626   7.8681
     7.8731   8.4301   8.7015   9.6302   9.7592   9.8079  10.2237  10.4555
    10.7518  11.1349  11.1837  11.4890  13.0611  13.9111  14.0946  19.0040

          k = 0.8125-0.0625 0.9375 (  2526 PWs)   bands (ev):

   -91.2481 -51.6400 -51.6396 -51.6395   6.7697   7.2729   7.3994   7.6979
     7.8929   8.4285   8.9722   9.2611   9.7728   9.9098  10.1798  10.4132
    10.6068  11.3515  11.4820  11.7955  12.1919  13.0634  13.7018  19.3259

          k = 0.6875 0.0625 0.8125 (  2535 PWs)   bands (ev):

   -91.2482 -51.6400 -51.6397 -51.6396   6.7743   7.2447   7.5024   7.6544
     7.8298   8.7369   8.8496   9.2245   9.8330   9.9550  10.0876  10.2775
    10.4920  11.2154  11.4754  11.6108  12.0085  12.8239  14.5873  19.5121

          k = 0.5625 0.1875 0.6875 (  2538 PWs)   bands (ev):

   -91.2482 -51.6400 -51.6397 -51.6396   6.4475   7.2264   7.6672   7.7177
     7.8213   8.3455   9.0971   9.3140   9.5749   9.8379   9.9711  10.0808
    10.6236  10.9793  11.2829  11.4345  11.9357  14.4478  15.9522  19.7772

          k = 0.4375 0.3125 0.5625 (  2534 PWs)   bands (ev):

   -91.2482 -51.6399 -51.6397 -51.6396   5.9806   7.4335   7.6272   7.7806
     7.9422   8.1543   8.7601   9.3234   9.4868   9.7404   9.8887  10.0258
    10.7967  10.8869  11.2642  11.3687  12.2027  16.5311  17.2275  19.7604

          k =-0.0625-0.9375 0.0625 (  2517 PWs)   bands (ev):

   -91.2480 -51.6400 -51.6395 -51.6395   6.7373   7.2348   7.4349   7.8139
     7.8869   8.1808   8.9839   9.3810   9.7679   9.8000  10.2211  10.4486
    10.7361  11.4148  11.4427  11.7073  12.2961  13.3340  13.5902  18.9864

          k =-0.1875-0.8125-0.0625 (  2527 PWs)   bands (ev):

   -91.2481 -51.6399 -51.6396 -51.6395   6.6967   6.8677   7.4114   7.7956
     7.8806   8.5690   8.6837   9.5238   9.7633   9.8595  10.1792  10.4036
    10.6324  11.1396  11.2614  11.5141  12.8089  13.7376  14.2170  19.3574

          k =-0.3125-0.6875-0.1875 (  2529 PWs)   bands (ev):

   -91.2481 -51.6398 -51.6396 -51.6396   6.2051   7.1133   7.6205   7.7307
     7.8396   8.3611   8.8869   9.5542   9.6031   9.7399  10.0551  10.1881
    10.6698  10.9340  11.2188  11.4048  12.5172  14.9784  15.6460  19.5965

          k =-0.0625-0.6875 0.0625 (  2530 PWs)   bands (ev):

   -91.2481 -51.6399 -51.6396 -51.6395   5.9624   6.9593   7.4296   7.8483
     7.8532   8.4138   8.5927   9.7134   9.7154   9.9227  10.2320  10.4640
    10.7536  10.8404  10.9506  11.4025  14.0993  14.8214  14.8767  19.0515

          k =-0.1875-0.5625-0.0625 (  2536 PWs)   bands (ev):

   -91.2482 -51.6398 -51.6396 -51.6396   5.3975   7.1760   7.5609   7.7775
     7.8171   8.1620   8.7608   9.5285   9.6020   9.9851  10.2125  10.3358
    10.6921  10.7818  11.0191  11.3865  14.5215  15.5189  16.4450  19.5835

          k =-0.0625-0.4375 0.0625 (  2549 PWs)   bands (ev):

   -91.2483 -51.6398 -51.6396 -51.6396   4.7101   7.3362   7.5687   7.7812
     7.7947   7.9342   8.7601   9.3983   9.4103  10.2475  10.2984  10.4920
    10.6516  10.6818  11.0543  11.3747  16.2802  16.8729  17.4745  19.3292

          k =-0.1875 0.1875 0.1875 (  2553 PWs)   bands (ev):

   -91.2484 -51.6398 -51.6396 -51.6396   4.2522   7.6177   7.6177   7.6473
     7.7758   7.7758   9.0128   9.0990   9.0990  10.3232  10.3232  10.4391
    10.7438  10.7438  11.2970  11.2970  16.4299  19.3083  19.3083  20.2015

          k =-0.3125 0.3125 0.0625 (  2551 PWs)   bands (ev):

   -91.2483 -51.6398 -51.6397 -51.6396   4.6864   7.5308   7.6284   7.6785
     7.7852   7.8719   9.0250   9.0826   9.3271  10.1579  10.2745  10.2947
    10.7333  10.7580  11.1605  11.3829  15.5187  16.6221  19.4732  20.5896

          k =-0.4375 0.4375-0.0625 (  2540 PWs)   bands (ev):

   -91.2482 -51.6398 -51.6396 -51.6396   5.4548   7.4120   7.6490   7.6757
     7.9215   7.9449   9.1063   9.1568   9.5405   9.8640  10.1406  10.1416
    10.6891  10.8937  11.0493  11.4316  13.9262  15.0708  18.1023  20.0296

          k = 0.4375-0.4375 0.8125 (  2532 PWs)   bands (ev):

   -91.2481 -51.6399 -51.6396 -51.6396   6.1961   7.3332   7.6617   7.7168
     7.8682   8.2045   9.0723   9.2835   9.5335   9.8091   9.9287  10.0610
    10.6885  10.9180  11.1975  11.4267  12.2261  14.9262  16.8366  19.5973

          k = 0.3125-0.3125 0.6875 (  2525 PWs)   bands (ev):

   -91.2481 -51.6398 -51.6396 -51.6395   6.2375   7.2065   7.6972   7.7029
     7.8433   8.3199   8.9301   9.4635   9.5119   9.7437   9.9743  10.0989
    10.7324  10.9030  11.3075  11.3558  12.1097  15.4228  16.1241  19.3808

          k = 0.1875-0.1875 0.5625 (  2532 PWs)   bands (ev):

   -91.2482 -51.6398 -51.6396 -51.6396   5.4970   7.2126   7.6085   7.7457
     7.8177   8.1759   8.8131   9.4722   9.5831   9.9023  10.1462  10.2547
    10.7463  10.7809  11.1006  11.3795  13.7958  16.1626  16.3808  19.3520

          k =-0.1875 0.4375 0.1875 (  2536 PWs)   bands (ev):

   -91.2482 -51.6398 -51.6397 -51.6396   4.9646   7.3968   7.6467   7.7037
     7.8003   7.9924   8.8710   9.2882   9.3974  10.0808  10.2053  10.2602
    10.7463  10.7569  11.1481  11.3735  14.6241  17.1253  17.8108  19.6378

          k =-0.3125 0.5625 0.0625 (  2537 PWs)   bands (ev):

   -91.2482 -51.6399 -51.6396 -51.6396   5.6064   7.2364   7.6409   7.7325
     7.8095   8.1493   8.9005   9.4214   9.6186   9.8413  10.1474  10.2094
    10.6738  10.8884  11.0472  11.4125  13.8568  14.9754  16.8092  20.3871

          k = 0.5625-0.3125 0.9375 (  2525 PWs)   bands (ev):

   -91.2481 -51.6398 -51.6396 -51.6395   6.3513   7.1548   7.6364   7.7068
     7.8380   8.3409   9.0386   9.4281   9.6207   9.7968  10.0898  10.1435
    10.5590  11.0235  11.1544  11.4704  12.7018  13.7872  15.6697  20.7194

          k = 0.4375-0.1875 0.8125 (  2532 PWs)   bands (ev):

   -91.2481 -51.6399 -51.6396 -51.6395   6.6469   7.1079   7.6186   7.6826
     7.8669   8.4749   9.0673   9.3223   9.6930   9.8106  10.0660  10.1386
    10.5230  11.1286  11.3489  11.5405  11.8220  13.9478  14.9762  20.3870

          k = 0.3125-0.0625 0.6875 (  2525 PWs)   bands (ev):

   -91.2481 -51.6398 -51.6396 -51.6395   6.1798   7.0632   7.5734   7.7388
     7.8513   8.3743   8.8490   9.6218   9.6416   9.7539  10.1268  10.2494
    10.6041  11.0011  11.1126  11.4360  13.1218  14.2210  15.4360  20.2571

          k =-0.1875 0.6875 0.1875 (  2531 PWs)   bands (ev):

   -91.2481 -51.6398 -51.6396 -51.6396   6.1010   7.0363   7.5352   7.7827
     7.8338   8.3989   8.7598   9.6504   9.6761   9.7681  10.1231  10.2969
    10.6951  10.8743  11.1654  11.3983  13.0288  14.9927  15.3276  19.2161

          k = 0.6875-0.1875 1.0625 (  2528 PWs)   bands (ev):

   -91.2481 -51.6399 -51.6396 -51.6396   6.7323   6.9414   7.4963   7.7164
     7.8946   8.6222   8.7868   9.4374   9.7698   9.8370  10.1289  10.2967
    10.5178  11.1626  11.3233  11.5501  12.4939  13.5207  14.3197  20.1721

          k = 0.5625-0.0625 0.9375 (  2526 PWs)   bands (ev):

   -91.2481 -51.6399 -51.6396 -51.6395   6.9281   7.0705   7.5221   7.6273
     7.9415   8.7338   9.0020   9.2130   9.7737   9.9397  10.1005  10.1640
    10.4323  11.2611  11.5761  11.7491  12.1886  12.7499  13.6292  21.2726

          k = 0.4375 0.0625 0.8125 (  2530 PWs)   bands (ev):

   -91.2481 -51.6399 -51.6396 -51.6395   6.7611   7.0357   7.5718   7.6670
     7.9008   8.5578   9.0171   9.3422   9.7648   9.7942  10.1058  10.1933
    10.4624  11.1772  11.3632  11.5727  12.2536  13.2538  14.4574  21.1740

          k =-0.1875-1.0625 0.1875 (  2534 PWs)   bands (ev):

   -91.2481 -51.6400 -51.6396 -51.6395   6.7714   7.2910   7.4235   7.6875
     7.8258   8.6036   8.9023   9.2162   9.8307   9.9275  10.1342  10.3788
    10.5678  11.3066  11.4680  11.8346  11.9534  12.7912  14.2865  19.1309

          k =-0.3125-0.9375 0.0625 (  2534 PWs)   bands (ev):

   -91.2481 -51.6400 -51.6396 -51.6396   6.8345   7.2044   7.4441   7.6416
     7.9172   8.7235   8.8651   9.2219   9.7717   9.9930  10.1347  10.2781
    10.4731  11.2920  11.5379  11.8199  12.1276  12.8679  13.6790  20.1330

          k =-0.1875-0.8125 0.1875 (  2532 PWs)   bands (ev):

   -91.2481 -51.6399 -51.6396 -51.6396   6.6735   6.9443   7.4621   7.8107
     7.8118   8.6488   8.6834   9.4564   9.7708   9.8723  10.1269  10.3510
    10.6182  11.0855  11.3252  11.5191  12.3605  13.7686  14.6710  19.1542

          k =-0.3125 0.3125 0.3125 (  2539 PWs)   bands (ev):

   -91.2482 -51.6397 -51.6397 -51.6397   5.0599   7.6137   7.6137   7.6178
     7.9361   7.9361   8.8557   9.2438   9.2438  10.0755  10.0755  10.1293
    10.7895  10.7895  11.3120  11.3120  13.8572  18.3122  18.3122  20.0319

          k =-0.4375 0.4375 0.1875 (  2537 PWs)   bands (ev):

   -91.2482 -51.6398 -51.6396 -51.6396   5.5353   7.4577   7.6252   7.6918
     7.9616   7.9859   8.9636   9.2037   9.4792   9.8491  10.0576  10.0909
    10.7404  10.8742  11.1555  11.4072  13.1962  16.1058  18.0710  19.9661

          k = 0.4375-0.4375 1.0625 (  2531 PWs)   bands (ev):

   -91.2481 -51.6398 -51.6397 -51.6396   6.2112   7.3175   7.6523   7.6830
     7.8338   8.2145   9.2041   9.2286   9.6216   9.8326  10.0146  10.1041
    10.6134  10.8948  11.1408  11.4647  12.7784  13.8554  16.6959  19.5989

          k = 0.3125-0.3125 0.9375 (  2541 PWs)   bands (ev):

   -91.2482 -51.6400 -51.6397 -51.6397   6.6669   7.2765   7.5883   7.6846
     7.7459   8.5645   9.0061   9.2423   9.8102   9.9592  10.0109  10.2072
    10.5366  10.9810  11.3765  11.4767  12.1580  13.0431  15.3864  19.3109

          k =-0.3125 0.5625 0.3125 (  2523 PWs)   bands (ev):

   -91.2481 -51.6398 -51.6396 -51.6396   5.8177   7.3573   7.6612   7.7316
     7.8838   8.1782   8.8471   9.3066   9.5262   9.7539   9.9771  10.0782
    10.8088  10.8343  11.2480  11.3602  12.5871  16.7647  16.7742  19.5198

          k = 0.5625-0.3125 1.1875 (  2524 PWs)   bands (ev):

   -91.2481 -51.6398 -51.6396 -51.6395   6.3273   7.1979   7.6630   7.7187
     7.8475   8.3126   9.0393   9.3884   9.5597   9.7722  10.0121  10.0942
    10.6333  10.9984  11.2194  11.4321  12.1581  14.7589  15.8730  20.2416

          k = 0.4375-0.1875 1.0625 (  2533 PWs)   bands (ev):

   -91.2481 -51.6400 -51.6397 -51.6395   6.7737   7.1435   7.5740   7.6483
     7.8745   8.5915   9.0777   9.2300   9.8006   9.8540  10.1076  10.1607
    10.4519  11.1779  11.4132  11.5716  12.1088  13.0004  14.5896  20.4340

          k =-0.3125-1.1875 0.3125 (  2539 PWs)   bands (ev):

   -91.2482 -51.6400 -51.6396 -51.6396   6.5577   7.1583   7.6345   7.7282
     7.7868   8.4611   8.9831   9.3573   9.6720   9.8688   9.9975  10.1449
    10.6225  10.9774  11.4047  11.4132  11.8363  14.1391  15.6464  19.3272

          k =-0.4375 0.4375 0.4375 (  2515 PWs)   bands (ev):

   -91.2480 -51.6398 -51.6395 -51.6395   5.8526   7.5923   7.5923   7.7810
     8.1008   8.1008   8.4347   9.3876   9.3876   9.8021   9.8021  10.0012
    10.8548  10.8548  11.3290  11.3290  12.2316  17.7328  17.7328  19.8838

          k = 0.4375-0.4375 1.3125 (  2528 PWs)   bands (ev):

   -91.2481 -51.6399 -51.6396 -51.6396   6.1369   7.4102   7.6302   7.8164
     7.9091   8.1829   8.7941   9.3726   9.4423   9.7934   9.8129  10.0178
    10.7837  10.9047  11.2763  11.3697  11.9798  16.1431  17.0932  19.6211

     the Fermi energy is    11.4765 ev

!    total energy              =   -1389.46074460 Ry

     total all-electron energy =    -43178.960526 Ry
     estimated scf accuracy    <       0.00000082 Ry
     smearing contrib. (-TS)   =      -0.00492939 Ry
     internal energy E=F+TS    =   -1389.45581520 Ry

     The total energy is F=E-TS. E is the sum of the following terms:
     one-electron contribution =    -290.94384212 Ry
     hartree contribution      =     181.65421807 Ry
     xc contribution           =    -102.73327908 Ry
     ewald contribution        =    -311.79126866 Ry
     one-center paw contrib.   =    -865.64164342 Ry

     convergence has been achieved in  13 iterations

     Writing output data file ././cunipt.save/

     init_run     :      4.27s CPU      4.32s WALL (       1 calls)
     electrons    :    134.33s CPU    135.81s WALL (       1 calls)

     Called by init_run:
     wfcinit      :      3.09s CPU      3.11s WALL (       1 calls)
     potinit      :      0.36s CPU      0.38s WALL (       1 calls)
     hinit0       :      0.72s CPU      0.72s WALL (       1 calls)

     Called by electrons:
     c_bands      :    114.41s CPU    114.66s WALL (      13 calls)
     sum_band     :     14.59s CPU     15.29s WALL (      13 calls)
     v_of_rho     :      0.27s CPU      0.27s WALL (      14 calls)
     newd         :      0.77s CPU      1.31s WALL (      14 calls)
     PAW_pot      :      4.66s CPU      4.68s WALL (      14 calls)
     mix_rho      :      0.04s CPU      0.04s WALL (      13 calls)

     Called by c_bands:
     init_us_2    :      1.28s CPU      1.29s WALL (    1620 calls)
     cegterg      :    109.95s CPU    110.19s WALL (     780 calls)

     Called by *egterg:
     cdiaghg      :      2.01s CPU      2.02s WALL (    3714 calls)
     h_psi        :     66.41s CPU     66.60s WALL (    3774 calls)
     s_psi        :      9.95s CPU      9.96s WALL (    3774 calls)
     g_psi        :      0.42s CPU      0.42s WALL (    2934 calls)

     Called by h_psi:
     h_psi:calbec :      9.22s CPU      9.24s WALL (    3774 calls)
     vloc_psi     :     46.95s CPU     47.10s WALL (    3774 calls)
     add_vuspsi   :     10.01s CPU     10.03s WALL (    3774 calls)

     General routines
     calbec       :     12.30s CPU     12.32s WALL (    4554 calls)
     fft          :      0.12s CPU      0.12s WALL (     154 calls)
     ffts         :      0.01s CPU      0.01s WALL (      13 calls)
     fftw         :     49.34s CPU     49.50s WALL (  127396 calls)

     Parallel routines

     PWSCF        :   2m18.83s CPU   2m20.41s WALL


   This run was terminated on:  23: 8:35  13Sep2024            

=------------------------------------------------------------------------------=
   JOB DONE.
=------------------------------------------------------------------------------=
