
     Program PWSCF v.6.7MaX starts on 13Sep2024 at 23: 4:30 

     This program is part of the open-source Quantum ESPRESSO suite
     for quantum simulation of materials; please cite
         "P. Giannozzi et al., J. Phys.:Condens. Matter 21 395502 (2009);
         "P. Giannozzi et al., J. Phys.:Condens. Matter 29 465901 (2017);
          URL http://www.quantum-espresso.org", 
     in publications or presentations arising from this work. More details at
     http://www.quantum-espresso.org/quote

     Parallel version (MPI), running on     1 processors

     MPI processes distributed on     1 nodes
     Waiting for input...
     Reading input from standard input

     Current dimensions of program PWSCF are:
     Max number of different atomic species (ntypx) = 10
     Max number of k-points (npk) =  40000
     Max angular momentum in pseudopotentials (lmaxx) =  3
     file Cu.upf: wavefunction(s)  4S 3D renormalized
     file Ni.upf: wavefunction(s)  3P 3D renormalized
     file Pt.upf: wavefunction(s)  6S 5D renormalized

     Subspace diagonalization in iterative solution of the eigenvalue problem:
     a serial algorithm will be used


     G-vector sticks info
     --------------------
     sticks:   dense  smooth     PW     G-vecs:    dense   smooth      PW
     Sum         967     967    295                20179    20179    3287



     bravais-lattice index     =            2
     lattice parameter (alat)  =      10.8900  a.u.
     unit-cell volume          =     322.8670 (a.u.)^3
     number of atoms/cell      =            3
     number of atomic types    =            3
     number of electrons       =        39.00
     number of Kohn-Sham states=           24
     kinetic-energy cutoff     =      60.0000  Ry
     charge density cutoff     =     240.0000  Ry
     scf convergence threshold =      1.0E-06
     mixing beta               =       0.6000
     number of iterations used =            8  plain     mixing
     Exchange-correlation= SLA  PW   PBX  PBC
                           (   1   4   3   4   0   0   0)

     celldm(1)=  10.890000  celldm(2)=   0.000000  celldm(3)=   0.000000
     celldm(4)=   0.000000  celldm(5)=   0.000000  celldm(6)=   0.000000

     crystal axes: (cart. coord. in units of alat)
               a(1) = (  -0.500000   0.000000   0.500000 )  
               a(2) = (   0.000000   0.500000   0.500000 )  
               a(3) = (  -0.500000   0.500000   0.000000 )  

     reciprocal axes: (cart. coord. in units 2 pi/alat)
               b(1) = ( -1.000000 -1.000000  1.000000 )  
               b(2) = (  1.000000  1.000000  1.000000 )  
               b(3) = ( -1.000000  1.000000 -1.000000 )  


     PseudoPot. # 1 for Cu read from file:
     ././Cu.upf
     MD5 check sum: cfffd1f38ee05704b3e17f46f1730a6f
     Pseudo is Projector augmented-wave + core cor, Zval = 11.0
     Generated using &quot;atomic&quot; code by A. Dal Corso  v.6.3
     Shape of augmentation charge: PSQ
     Using radial grid of 1199 points,  6 beta functions with: 
                l(1) =   0
                l(2) =   0
                l(3) =   1
                l(4) =   1
                l(5) =   2
                l(6) =   2
     Q(r) pseudized with 0 coefficients 


     PseudoPot. # 2 for Ni read from file:
     ././Ni.upf
     MD5 check sum: 6e86b733589c3ad8389697b807d86aa7
     Pseudo is Projector augmented-wave + core cor, Zval = 18.0
     Generated using &quot;atomic&quot; code by A. Dal Corso  v.6.3
     Shape of augmentation charge: PSQ
     Using radial grid of 1195 points,  6 beta functions with: 
                l(1) =   0
                l(2) =   0
                l(3) =   1
                l(4) =   1
                l(5) =   2
                l(6) =   2
     Q(r) pseudized with 0 coefficients 


     PseudoPot. # 3 for Pt read from file:
     ././Pt.upf
     MD5 check sum: c5224e9cd7a5e36e81f2def9f50bb494
     Pseudo is Projector augmented-wave + core cor, Zval = 10.0
     Generated using &quot;atomic&quot; code by A. Dal Corso  v.6.3
     Shape of augmentation charge: PSQ
     Using radial grid of 1277 points,  6 beta functions with: 
                l(1) =   0
                l(2) =   0
                l(3) =   1
                l(4) =   1
                l(5) =   2
                l(6) =   2
     Q(r) pseudized with 0 coefficients 


     atomic species   valence    mass     pseudopotential
        Cu            11.00    63.54600     Cu( 1.00)
        Ni            18.00    58.69300     Ni( 1.00)
        Pt            10.00   195.08000     Pt( 1.00)

     24 Sym. Ops. (no inversion) found



   Cartesian axes

     site n.     atom                  positions (alat units)
         1           Cu  tau(   1) = (   0.0000000   0.0000000   0.0000000  )
         2           Ni  tau(   2) = (   0.5000000   0.5000000   0.5000000  )
         3           Pt  tau(   3) = (   0.2500000   0.2500000   0.2500000  )

     number of k points=    10  Gaussian smearing, width (Ry)=  0.0100
                       cart. coord. in units 2pi/alat
        k(    1) = (  -0.1250000   0.1250000   0.1250000), wk =   0.0625000
        k(    2) = (  -0.3750000   0.3750000  -0.1250000), wk =   0.1875000
        k(    3) = (   0.3750000  -0.3750000   0.6250000), wk =   0.1875000
        k(    4) = (   0.1250000  -0.1250000   0.3750000), wk =   0.1875000
        k(    5) = (  -0.1250000   0.6250000   0.1250000), wk =   0.1875000
        k(    6) = (   0.6250000  -0.1250000   0.8750000), wk =   0.3750000
        k(    7) = (   0.3750000   0.1250000   0.6250000), wk =   0.3750000
        k(    8) = (  -0.1250000  -0.8750000   0.1250000), wk =   0.1875000
        k(    9) = (  -0.3750000   0.3750000   0.3750000), wk =   0.0625000
        k(   10) = (   0.3750000  -0.3750000   1.1250000), wk =   0.1875000

     Dense  grid:    20179 G-vectors     FFT dimensions: (  40,  40,  40)

     Estimated max dynamical RAM per process >      87.62 MB

     Check: negative core charge=   -0.000002

     Initial potential from superposition of free atoms

     starting charge   38.99935, renormalised to   39.00000
     Starting wfcs are   28 randomized atomic wfcs
     Checking if some PAW data can be deallocated... 

     total cpu time spent up to now is        1.9 secs

     Self-consistent Calculation

     iteration #  1     ecut=    60.00 Ry     beta= 0.60
     Davidson diagonalization with overlap
     ethr =  1.00E-02,  avg # of iterations =  4.9

     total cpu time spent up to now is        4.0 secs

     total energy              =   -1388.14331814 Ry
     estimated scf accuracy    <       1.83582628 Ry

     iteration #  2     ecut=    60.00 Ry     beta= 0.60
     Davidson diagonalization with overlap
     ethr =  4.71E-03,  avg # of iterations =  6.5

     total cpu time spent up to now is        6.6 secs

     total energy              =   -1386.37807617 Ry
     estimated scf accuracy    <      45.68022053 Ry

     iteration #  3     ecut=    60.00 Ry     beta= 0.60
     Davidson diagonalization with overlap
     ethr =  4.71E-03,  avg # of iterations =  4.9

     total cpu time spent up to now is        9.0 secs

     total energy              =   -1389.41281570 Ry
     estimated scf accuracy    <       0.41268820 Ry

     iteration #  4     ecut=    60.00 Ry     beta= 0.60
     Davidson diagonalization with overlap
     ethr =  1.06E-03,  avg # of iterations =  2.0

     total cpu time spent up to now is       10.9 secs

     total energy              =   -1389.45347487 Ry
     estimated scf accuracy    <       0.03519712 Ry

     iteration #  5     ecut=    60.00 Ry     beta= 0.60
     Davidson diagonalization with overlap
     ethr =  9.02E-05,  avg # of iterations =  4.3

     total cpu time spent up to now is       13.0 secs

     total energy              =   -1389.45632641 Ry
     estimated scf accuracy    <       0.01838064 Ry

     iteration #  6     ecut=    60.00 Ry     beta= 0.60
     Davidson diagonalization with overlap
     ethr =  4.71E-05,  avg # of iterations =  2.0

     total cpu time spent up to now is       15.0 secs

     total energy              =   -1389.45906901 Ry
     estimated scf accuracy    <       0.00744577 Ry

     iteration #  7     ecut=    60.00 Ry     beta= 0.60
     Davidson diagonalization with overlap
     ethr =  1.91E-05,  avg # of iterations =  2.6

     total cpu time spent up to now is       16.8 secs

     total energy              =   -1389.45988758 Ry
     estimated scf accuracy    <       0.00261545 Ry

     iteration #  8     ecut=    60.00 Ry     beta= 0.60
     Davidson diagonalization with overlap
     ethr =  6.71E-06,  avg # of iterations =  2.5

     total cpu time spent up to now is       18.6 secs

     total energy              =   -1389.46022037 Ry
     estimated scf accuracy    <       0.00046544 Ry

     iteration #  9     ecut=    60.00 Ry     beta= 0.60
     Davidson diagonalization with overlap
     ethr =  1.19E-06,  avg # of iterations =  3.9

     total cpu time spent up to now is       20.7 secs

     total energy              =   -1389.46028955 Ry
     estimated scf accuracy    <       0.00000443 Ry

     iteration # 10     ecut=    60.00 Ry     beta= 0.60
     Davidson diagonalization with overlap
     ethr =  1.14E-08,  avg # of iterations =  8.6

     total cpu time spent up to now is       25.3 secs

     total energy              =   -1389.46031080 Ry
     estimated scf accuracy    <       0.00001550 Ry

     iteration # 11     ecut=    60.00 Ry     beta= 0.60
     Davidson diagonalization with overlap
     ethr =  1.14E-08,  avg # of iterations =  1.0

     total cpu time spent up to now is       27.1 secs

     total energy              =   -1389.46030667 Ry
     estimated scf accuracy    <       0.00001255 Ry

     iteration # 12     ecut=    60.00 Ry     beta= 0.60
     Davidson diagonalization with overlap
     ethr =  1.14E-08,  avg # of iterations =  2.0

     total cpu time spent up to now is       29.3 secs

     total energy              =   -1389.46030863 Ry
     estimated scf accuracy    <       0.00000100 Ry

     iteration # 13     ecut=    60.00 Ry     beta= 0.60
     Davidson diagonalization with overlap
     ethr =  2.57E-09,  avg # of iterations =  1.9

     total cpu time spent up to now is       31.2 secs

     End of self-consistent calculation

          k =-0.1250 0.1250 0.1250 (  2556 PWs)   bands (ev):

   -91.1992 -51.5920 -51.5918 -51.5918   3.9743   7.6001   7.6001   7.6991
     7.7567   7.7567   9.0281   9.0576   9.0576  10.4010  10.4010  10.6364
    10.7758  10.7758  11.3278  11.3278  17.9227  19.9072  19.9072  20.2359

          k =-0.3750 0.3750-0.1250 (  2538 PWs)   bands (ev):

   -91.1990 -51.5920 -51.5919 -51.5919   5.1013   7.4948   7.6372   7.6897
     7.8839   7.9361   9.0254   9.1483   9.4248  10.0143  10.2034  10.2058
    10.7474  10.8457  11.1710  11.4319  14.2763  16.3129  18.7455  20.2463

          k = 0.3750-0.3750 0.6250 (  2525 PWs)   bands (ev):

   -91.1989 -51.5921 -51.5919 -51.5918   6.1034   7.3856   7.6527   7.8118
     7.9042   8.2199   8.7995   9.3748   9.4909   9.7488   9.9010  10.0473
    10.8303  10.9037  11.3438  11.3586  12.0681  16.3997  16.8470  19.5473

          k = 0.1250-0.1250 0.3750 (  2544 PWs)   bands (ev):

   -91.1991 -51.5921 -51.5919 -51.5918   4.5747   7.4528   7.6285   7.7294
     7.7882   7.8936   8.8641   9.2771   9.3236  10.2486  10.3236  10.4276
    10.7275  10.7519  11.1752  11.4008  15.9451  17.5263  18.3868  19.7579

          k =-0.1250 0.6250 0.1250 (  2536 PWs)   bands (ev):

   -91.1990 -51.5921 -51.5919 -51.5918   5.6904   7.0826   7.5189   7.8153
     7.8430   8.2929   8.7148   9.6422   9.6837   9.9319  10.2293  10.3886
    10.7443  10.8045  11.0497  11.4193  14.0691  15.4900  15.5295  19.2095

          k = 0.6250-0.1250 0.8750 (  2532 PWs)   bands (ev):

   -91.1990 -51.5922 -51.5919 -51.5918   6.8263   7.0748   7.5362   7.6776
     7.9043   8.6613   8.9328   9.3048   9.8140   9.8998  10.1229  10.2463
    10.4833  11.2413  11.4778  11.7503  11.9074  13.2592  14.2909  20.2882

          k = 0.3750 0.1250 0.6250 (  2531 PWs)   bands (ev):

   -91.1990 -51.5921 -51.5919 -51.5918   6.0188   7.2128   7.6652   7.7284
     7.8432   8.2501   8.9732   9.4427   9.6510   9.7507  10.0986  10.1708
    10.6742  10.9729  11.1452  11.4564  12.8976  14.8073  16.2861  20.3038

          k =-0.1250-0.8750 0.1250 (  2524 PWs)   bands (ev):

   -91.1989 -51.5922 -51.5918 -51.5918   6.7868   7.0458   7.3878   7.8178
     7.8673   8.4671   8.8422   9.4202   9.8026   9.8823  10.2095  10.4353
    10.6901  11.2856  11.3975  11.6492  12.4689  13.3352  14.0543  19.0822

          k =-0.3750 0.3750 0.3750 (  2536 PWs)   bands (ev):

   -91.1990 -51.5921 -51.5919 -51.5919   5.5055   7.6107   7.6107   7.6765
     8.0391   8.0391   8.6770   9.3333   9.3333   9.9458   9.9458  10.0688
    10.8509  10.8509  11.3505  11.3505  12.9000  17.9653  17.9653  19.9473

          k = 0.3750-0.3750 1.1250 (  2534 PWs)   bands (ev):

   -91.1990 -51.5922 -51.5919 -51.5919   6.4724   7.2747   7.6734   7.7136
     7.7828   8.3717   9.1339   9.2841   9.6527   9.9430   9.9659  10.1300
    10.6264  10.9308  11.2992  11.4822  12.1487  13.9148  16.1061  19.4483

     the Fermi energy is    11.5127 ev

!    total energy              =   -1389.46030820 Ry

     total all-electron energy =    -43178.960089 Ry
     estimated scf accuracy    <       0.00000057 Ry
     smearing contrib. (-TS)   =      -0.00435779 Ry
     internal energy E=F+TS    =   -1389.45595041 Ry

     The total energy is F=E-TS. E is the sum of the following terms:
     one-electron contribution =    -291.00365191 Ry
     hartree contribution      =     181.71960572 Ry
     xc contribution           =    -102.74015821 Ry
     ewald contribution        =    -311.79126866 Ry
     one-center paw contrib.   =    -865.64047735 Ry

     convergence has been achieved in  13 iterations

     Writing output data file ././cunipt.save/

     init_run     :      1.65s CPU      1.71s WALL (       1 calls)
     electrons    :     28.08s CPU     29.31s WALL (       1 calls)

     Called by init_run:
     wfcinit      :      0.54s CPU      0.54s WALL (       1 calls)
     potinit      :      0.35s CPU      0.37s WALL (       1 calls)
     hinit0       :      0.68s CPU      0.68s WALL (       1 calls)

     Called by electrons:
     c_bands      :     19.30s CPU     19.34s WALL (      13 calls)
     sum_band     :      3.30s CPU      3.96s WALL (      13 calls)
     v_of_rho     :      0.28s CPU      0.29s WALL (      14 calls)
     newd         :      0.78s CPU      1.34s WALL (      14 calls)
     PAW_pot      :      4.78s CPU      4.79s WALL (      14 calls)
     mix_rho      :      0.04s CPU      0.04s WALL (      13 calls)

     Called by c_bands:
     init_us_2    :      0.22s CPU      0.23s WALL (     270 calls)
     cegterg      :     18.54s CPU     18.58s WALL (     130 calls)

     Called by *egterg:
     cdiaghg      :      0.33s CPU      0.33s WALL (     601 calls)
     h_psi        :     11.23s CPU     11.26s WALL (     611 calls)
     s_psi        :      1.69s CPU      1.69s WALL (     611 calls)
     g_psi        :      0.07s CPU      0.07s WALL (     471 calls)

     Called by h_psi:
     h_psi:calbec :      1.57s CPU      1.57s WALL (     611 calls)
     vloc_psi     :      7.95s CPU      7.97s WALL (     611 calls)
     add_vuspsi   :      1.68s CPU      1.68s WALL (     611 calls)

     General routines
     calbec       :      2.11s CPU      2.12s WALL (     741 calls)
     fft          :      0.13s CPU      0.13s WALL (     154 calls)
     ffts         :      0.01s CPU      0.01s WALL (      13 calls)
     fftw         :      8.44s CPU      8.47s WALL (   20824 calls)

     Parallel routines

     PWSCF        :     29.94s CPU     31.26s WALL


   This run was terminated on:  23: 5: 1  13Sep2024            

=------------------------------------------------------------------------------=
   JOB DONE.
=------------------------------------------------------------------------------=
