
     Program PWSCF v.6.7MaX starts on 13Sep2024 at 23: 1:26 

     This program is part of the open-source Quantum ESPRESSO suite
     for quantum simulation of materials; please cite
         "P. Giannozzi et al., J. Phys.:Condens. Matter 21 395502 (2009);
         "P. Giannozzi et al., J. Phys.:Condens. Matter 29 465901 (2017);
          URL http://www.quantum-espresso.org", 
     in publications or presentations arising from this work. More details at
     http://www.quantum-espresso.org/quote

     Parallel version (MPI), running on     1 processors

     MPI processes distributed on     1 nodes
     Waiting for input...
     Reading input from standard input

     Current dimensions of program PWSCF are:
     Max number of different atomic species (ntypx) = 10
     Max number of k-points (npk) =  40000
     Max angular momentum in pseudopotentials (lmaxx) =  3
     file Cu.upf: wavefunction(s)  4S 3D renormalized
     file Ni.upf: wavefunction(s)  3P 3D renormalized
     file Pt.upf: wavefunction(s)  6S 5D renormalized

     Subspace diagonalization in iterative solution of the eigenvalue problem:
     a serial algorithm will be used


     G-vector sticks info
     --------------------
     sticks:   dense  smooth     PW     G-vecs:    dense   smooth      PW
     Sum         649     649    211                11017    11017    1989



     bravais-lattice index     =            2
     lattice parameter (alat)  =      10.8900  a.u.
     unit-cell volume          =     322.8670 (a.u.)^3
     number of atoms/cell      =            3
     number of atomic types    =            3
     number of electrons       =        39.00
     number of Kohn-Sham states=           24
     kinetic-energy cutoff     =      40.0000  Ry
     charge density cutoff     =     160.0000  Ry
     scf convergence threshold =      1.0E-06
     mixing beta               =       0.6000
     number of iterations used =            8  plain     mixing
     Exchange-correlation= SLA  PW   PBX  PBC
                           (   1   4   3   4   0   0   0)

     celldm(1)=  10.890000  celldm(2)=   0.000000  celldm(3)=   0.000000
     celldm(4)=   0.000000  celldm(5)=   0.000000  celldm(6)=   0.000000

     crystal axes: (cart. coord. in units of alat)
               a(1) = (  -0.500000   0.000000   0.500000 )  
               a(2) = (   0.000000   0.500000   0.500000 )  
               a(3) = (  -0.500000   0.500000   0.000000 )  

     reciprocal axes: (cart. coord. in units 2 pi/alat)
               b(1) = ( -1.000000 -1.000000  1.000000 )  
               b(2) = (  1.000000  1.000000  1.000000 )  
               b(3) = ( -1.000000  1.000000 -1.000000 )  


     PseudoPot. # 1 for Cu read from file:
     ././Cu.upf
     MD5 check sum: cfffd1f38ee05704b3e17f46f1730a6f
     Pseudo is Projector augmented-wave + core cor, Zval = 11.0
     Generated using &quot;atomic&quot; code by A. Dal Corso  v.6.3
     Shape of augmentation charge: PSQ
     Using radial grid of 1199 points,  6 beta functions with: 
                l(1) =   0
                l(2) =   0
                l(3) =   1
                l(4) =   1
                l(5) =   2
                l(6) =   2
     Q(r) pseudized with 0 coefficients 


     PseudoPot. # 2 for Ni read from file:
     ././Ni.upf
     MD5 check sum: 6e86b733589c3ad8389697b807d86aa7
     Pseudo is Projector augmented-wave + core cor, Zval = 18.0
     Generated using &quot;atomic&quot; code by A. Dal Corso  v.6.3
     Shape of augmentation charge: PSQ
     Using radial grid of 1195 points,  6 beta functions with: 
                l(1) =   0
                l(2) =   0
                l(3) =   1
                l(4) =   1
                l(5) =   2
                l(6) =   2
     Q(r) pseudized with 0 coefficients 


     PseudoPot. # 3 for Pt read from file:
     ././Pt.upf
     MD5 check sum: c5224e9cd7a5e36e81f2def9f50bb494
     Pseudo is Projector augmented-wave + core cor, Zval = 10.0
     Generated using &quot;atomic&quot; code by A. Dal Corso  v.6.3
     Shape of augmentation charge: PSQ
     Using radial grid of 1277 points,  6 beta functions with: 
                l(1) =   0
                l(2) =   0
                l(3) =   1
                l(4) =   1
                l(5) =   2
                l(6) =   2
     Q(r) pseudized with 0 coefficients 


     atomic species   valence    mass     pseudopotential
        Cu            11.00    63.54600     Cu( 1.00)
        Ni            18.00    58.69300     Ni( 1.00)
        Pt            10.00   195.08000     Pt( 1.00)

     24 Sym. Ops. (no inversion) found



   Cartesian axes

     site n.     atom                  positions (alat units)
         1           Cu  tau(   1) = (   0.0000000   0.0000000   0.0000000  )
         2           Ni  tau(   2) = (   0.5000000   0.5000000   0.5000000  )
         3           Pt  tau(   3) = (   0.2500000   0.2500000   0.2500000  )

     number of k points=    28  Gaussian smearing, width (Ry)=  0.0100
                       cart. coord. in units 2pi/alat
        k(    1) = (  -0.0833333   0.0833333   0.0833333), wk =   0.0185185
        k(    2) = (  -0.2500000   0.2500000  -0.0833333), wk =   0.0555556
        k(    3) = (  -0.4166667   0.4166667  -0.2500000), wk =   0.0555556
        k(    4) = (   0.4166667  -0.4166667   0.5833333), wk =   0.0555556
        k(    5) = (   0.2500000  -0.2500000   0.4166667), wk =   0.0555556
        k(    6) = (   0.0833333  -0.0833333   0.2500000), wk =   0.0555556
        k(    7) = (  -0.0833333   0.4166667   0.0833333), wk =   0.0555556
        k(    8) = (  -0.2500000   0.5833333  -0.0833333), wk =   0.1111111
        k(    9) = (   0.5833333  -0.2500000   0.7500000), wk =   0.1111111
        k(   10) = (   0.4166667  -0.0833333   0.5833333), wk =   0.1111111
        k(   11) = (   0.2500000   0.0833333   0.4166667), wk =   0.1111111
        k(   12) = (  -0.0833333   0.7500000   0.0833333), wk =   0.0555556
        k(   13) = (   0.7500000  -0.0833333   0.9166667), wk =   0.1111111
        k(   14) = (   0.5833333   0.0833333   0.7500000), wk =   0.1111111
        k(   15) = (   0.4166667   0.2500000   0.5833333), wk =   0.1111111
        k(   16) = (  -0.0833333  -0.9166667   0.0833333), wk =   0.0555556
        k(   17) = (  -0.2500000  -0.7500000  -0.0833333), wk =   0.1111111
        k(   18) = (  -0.0833333  -0.5833333   0.0833333), wk =   0.0555556
        k(   19) = (  -0.2500000   0.2500000   0.2500000), wk =   0.0185185
        k(   20) = (  -0.4166667   0.4166667   0.0833333), wk =   0.0555556
        k(   21) = (   0.4166667  -0.4166667   0.9166667), wk =   0.0555556
        k(   22) = (   0.2500000  -0.2500000   0.7500000), wk =   0.0555556
        k(   23) = (  -0.2500000   0.5833333   0.2500000), wk =   0.0555556
        k(   24) = (   0.5833333  -0.2500000   1.0833333), wk =   0.1111111
        k(   25) = (   0.4166667  -0.0833333   0.9166667), wk =   0.1111111
        k(   26) = (  -0.2500000  -1.0833333   0.2500000), wk =   0.0555556
        k(   27) = (  -0.4166667   0.4166667   0.4166667), wk =   0.0185185
        k(   28) = (   0.4166667  -0.4166667   1.2500000), wk =   0.0555556

     Dense  grid:    11017 G-vectors     FFT dimensions: (  32,  32,  32)

     Estimated max dynamical RAM per process >      57.77 MB

     Check: negative core charge=   -0.000015

     Initial potential from superposition of free atoms

     starting charge   38.99935, renormalised to   39.00000
     Starting wfcs are   28 randomized atomic wfcs
     Checking if some PAW data can be deallocated... 

     total cpu time spent up to now is        1.9 secs

     Self-consistent Calculation

     iteration #  1     ecut=    40.00 Ry     beta= 0.60
     Davidson diagonalization with overlap
     ethr =  1.00E-02,  avg # of iterations =  4.8

     total cpu time spent up to now is        4.0 secs

     total energy              =   -1387.84592205 Ry
     estimated scf accuracy    <       1.53518735 Ry

     iteration #  2     ecut=    40.00 Ry     beta= 0.60
     Davidson diagonalization with overlap
     ethr =  3.94E-03,  avg # of iterations =  6.1

     total cpu time spent up to now is        7.0 secs

     total energy              =   -1386.19334073 Ry
     estimated scf accuracy    <      41.15865695 Ry

     iteration #  3     ecut=    40.00 Ry     beta= 0.60
     Davidson diagonalization with overlap
     ethr =  3.94E-03,  avg # of iterations =  4.3

     total cpu time spent up to now is       10.4 secs

     total energy              =   -1388.89724176 Ry
     estimated scf accuracy    <       0.39712192 Ry

     iteration #  4     ecut=    40.00 Ry     beta= 0.60
     Davidson diagonalization with overlap
     ethr =  1.02E-03,  avg # of iterations =  2.0

     total cpu time spent up to now is       12.4 secs

     total energy              =   -1388.93824720 Ry
     estimated scf accuracy    <       0.03500441 Ry

     iteration #  5     ecut=    40.00 Ry     beta= 0.60
     Davidson diagonalization with overlap
     ethr =  8.98E-05,  avg # of iterations =  3.5

     total cpu time spent up to now is       14.5 secs

     total energy              =   -1388.94117447 Ry
     estimated scf accuracy    <       0.01915220 Ry

     iteration #  6     ecut=    40.00 Ry     beta= 0.60
     Davidson diagonalization with overlap
     ethr =  4.91E-05,  avg # of iterations =  2.2

     total cpu time spent up to now is       16.5 secs

     total energy              =   -1388.94341857 Ry
     estimated scf accuracy    <       0.02696113 Ry

     iteration #  7     ecut=    40.00 Ry     beta= 0.60
     Davidson diagonalization with overlap
     ethr =  4.91E-05,  avg # of iterations =  1.1

     total cpu time spent up to now is       18.2 secs

     total energy              =   -1388.94626954 Ry
     estimated scf accuracy    <       0.00251923 Ry

     iteration #  8     ecut=    40.00 Ry     beta= 0.60
     Davidson diagonalization with overlap
     ethr =  6.46E-06,  avg # of iterations =  4.9

     total cpu time spent up to now is       20.2 secs

     total energy              =   -1388.94665777 Ry
     estimated scf accuracy    <       0.00098778 Ry

     iteration #  9     ecut=    40.00 Ry     beta= 0.60
     Davidson diagonalization with overlap
     ethr =  2.53E-06,  avg # of iterations =  2.4

     total cpu time spent up to now is       22.0 secs

     total energy              =   -1388.94674183 Ry
     estimated scf accuracy    <       0.00000617 Ry

     iteration # 10     ecut=    40.00 Ry     beta= 0.60
     Davidson diagonalization with overlap
     ethr =  1.58E-08,  avg # of iterations =  8.0

     total cpu time spent up to now is       26.3 secs

     total energy              =   -1388.94676457 Ry
     estimated scf accuracy    <       0.00001616 Ry

     iteration # 11     ecut=    40.00 Ry     beta= 0.60
     Davidson diagonalization with overlap
     ethr =  1.58E-08,  avg # of iterations =  2.0

     total cpu time spent up to now is       28.2 secs

     total energy              =   -1388.94676638 Ry
     estimated scf accuracy    <       0.00000282 Ry

     iteration # 12     ecut=    40.00 Ry     beta= 0.60
     Davidson diagonalization with overlap
     ethr =  7.24E-09,  avg # of iterations =  1.1

     total cpu time spent up to now is       29.9 secs

     End of self-consistent calculation

          k =-0.0833 0.0833 0.0833 (  1390 PWs)   bands (ev):

   -91.6812 -51.4617 -51.4413 -51.4413   3.8862   7.5998   7.5998   7.7409
     7.7672   7.7672   9.0283   9.0430   9.0430  10.4251  10.4251  10.7076
    10.7857  10.7857  11.2956  11.2956  18.9633  20.3092  20.3092  20.3741

          k =-0.2500 0.2500-0.0833 (  1376 PWs)   bands (ev):

   -91.6801 -51.4498 -51.4144 -51.3647   4.4215   7.6197   7.6336   7.6983
     7.7868   7.8516   9.0385   9.0869   9.2514  10.2966  10.3456  10.4632
    10.7717  10.7756  11.2211  11.3575  16.3008  17.6915  19.9347  20.7088

          k =-0.4167 0.4167-0.2500 (  1383 PWs)   bands (ev):

   -91.6800 -51.4310 -51.4215 -51.4025   5.5249   7.5471   7.6340   7.7231
     8.0178   8.0264   8.8744   9.2557   9.4472   9.9095  10.0534  10.1181
    10.7875  10.8573  11.2542  11.4038  13.1049  16.8715  18.1656  20.0218

          k = 0.4167-0.4167 0.5833 (  1383 PWs)   bands (ev):

   -91.6798 -51.4274 -51.4211 -51.3940   6.0723   7.5158   7.6411   7.8752
     7.9897   8.1919   8.6402   9.4030   9.4705   9.7758   9.8500  10.0496
    10.8374  10.8810  11.3596  11.3663  12.0517  16.9951  17.2337  19.7289

          k = 0.2500-0.2500 0.4167 (  1384 PWs)   bands (ev):

   -91.6803 -51.4384 -51.4374 -51.3969   5.1358   7.5052   7.6857   7.6960
     7.8850   8.0258   8.9258   9.2385   9.3857  10.0555  10.1653  10.2036
    10.7928  10.7983  11.2400  11.3735  14.0041  17.4614  18.1020  19.8713

          k = 0.0833-0.0833 0.2500 (  1388 PWs)   bands (ev):

   -91.6809 -51.4624 -51.4550 -51.4029   4.1596   7.5698   7.6720   7.6914
     7.7831   7.7995   8.9398   9.1616   9.1708  10.3764  10.3858  10.6101
    10.7375  10.7677  11.2090  11.3392  17.5819  18.6309  19.4736  20.3675

          k =-0.0833 0.4167 0.0833 (  1368 PWs)   bands (ev):

   -91.6794 -51.4060 -51.4046 -51.3434   4.6941   7.4026   7.6175   7.7951
     7.8216   7.9462   8.8166   9.3884   9.4100  10.2701  10.3312  10.5119
    10.7298  10.7461  11.1071  11.3861  16.1987  17.0799  17.8135  19.5688

          k =-0.2500 0.5833-0.0833 (  1381 PWs)   bands (ev):

   -91.6799 -51.4276 -51.4158 -51.3949   5.6347   7.2127   7.6188   7.7888
     7.8541   8.2256   8.8456   9.5331   9.6616   9.9002  10.2205  10.2922
    10.7053  10.8692  11.0805  11.4051  13.9443  15.2625  16.4118  19.8926

          k = 0.5833-0.2500 0.7500 (  1386 PWs)   bands (ev):

   -91.6800 -51.4345 -51.4272 -51.3996   6.4777   7.2217   7.6912   7.7401
     7.8766   8.3890   9.0666   9.4043   9.5891   9.8301  10.0294  10.1268
    10.6393  11.0237  11.3298  11.4543  11.9176  14.7529  15.6923  19.9517

          k = 0.4167-0.0833 0.5833 (  1375 PWs)   bands (ev):

   -91.6793 -51.4082 -51.4021 -51.3731   5.9606   7.3104   7.6889   7.7415
     7.8750   8.1898   9.0603   9.3751   9.6765   9.7846  10.1290  10.1737
    10.6632  10.9636  11.1125  11.4695  13.1702  14.5608  16.7762  20.4040

          k = 0.2500 0.0833 0.4167 (  1370 PWs)   bands (ev):

   -91.6795 -51.4230 -51.3963 -51.3490   4.9269   7.4537   7.6734   7.7344
     7.8241   7.9812   8.9341   9.2780   9.4310  10.1326  10.2851  10.3372
    10.7507  10.8104  11.1408  11.4049  15.0859  16.4584  18.3804  20.2466

          k =-0.0833 0.7500 0.0833 (  1379 PWs)   bands (ev):

   -91.6797 -51.4250 -51.3956 -51.3938   6.3634   6.9325   7.4321   7.8889
     7.8934   8.5774   8.5836   9.7256   9.7764   9.8660  10.2598  10.4763
    10.7591  11.0121  11.1110  11.4430  13.4803  14.3150  14.5107  19.1593

          k = 0.7500-0.0833 0.9167 (  1375 PWs)   bands (ev):

   -91.6792 -51.4082 -51.3895 -51.3740   6.8424   7.2291   7.4445   7.7161
     7.9288   8.6372   8.9048   9.2931   9.8232   9.9857  10.1943  10.3951
    10.5532  11.3213  11.5225  11.8158  12.1718  13.0199  13.8845  19.6585

          k = 0.5833 0.0833 0.7500 (  1382 PWs)   bands (ev):

   -91.6796 -51.4422 -51.3989 -51.3837   6.7010   7.2393   7.6296   7.6998
     7.8546   8.5355   9.1218   9.2708   9.7895   9.9135  10.0986  10.1906
    10.5171  11.0753  11.3792  11.5417  12.1273  13.3123  15.1905  19.9714

          k = 0.4167 0.2500 0.5833 (  1388 PWs)   bands (ev):

   -91.6802 -51.4372 -51.4245 -51.4220   6.0166   7.3872   7.6779   7.7723
     7.9247   8.2018   8.9443   9.3339   9.5580   9.7668   9.9891  10.0985
    10.7542  10.9004  11.2520  11.4139  12.3983  15.9493  16.9279  19.9172

          k =-0.0833-0.9167 0.0833 (  1373 PWs)   bands (ev):

   -91.6792 -51.4062 -51.3824 -51.3734   6.7918   7.2196   7.4213   7.8454
     7.9144   8.3152   8.9696   9.4151   9.8178   9.8641  10.2608  10.4791
    10.7259  11.4069  11.4605  11.7095  12.3926  13.3061  13.7138  19.1192

          k =-0.2500-0.7500-0.0833 (  1378 PWs)   bands (ev):

   -91.6795 -51.4179 -51.3954 -51.3878   6.4523   7.0007   7.5184   7.8030
     7.9037   8.5457   8.7593   9.6124   9.7718   9.8296  10.1985  10.3581
    10.6219  11.0671  11.2265  11.4779  12.9228  14.1243  14.7804  19.7212

          k =-0.0833-0.5833 0.0833 (  1372 PWs)   bands (ev):

   -91.6793 -51.4182 -51.3758 -51.3755   5.4541   7.1527   7.5324   7.8497
     7.8635   8.2306   8.7145   9.6358   9.6596  10.0768  10.2834  10.4669
    10.7531  10.7649  11.0011  11.3793  14.8254  15.6885  15.8857  19.2815

          k =-0.2500 0.2500 0.2500 (  1375 PWs)   bands (ev):

   -91.6799 -51.4347 -51.4347 -51.3446   4.6666   7.6475   7.6475   7.6549
     7.8742   7.8742   8.9993   9.1952   9.1952  10.2448  10.2448  10.3326
    10.7884  10.7884  11.3138  11.3138  15.0936  18.7594  18.7594  20.2114

          k =-0.4167 0.4167 0.0833 (  1377 PWs)   bands (ev):

   -91.6797 -51.4306 -51.4205 -51.3615   5.3691   7.4714   7.6671   7.7083
     7.9456   7.9613   9.1044   9.1746   9.5281   9.9350  10.1900  10.2149
    10.7243  10.8797  11.1092  11.4441  14.0584  15.4897  18.3184  20.1521

          k = 0.4167-0.4167 0.9167 (  1372 PWs)   bands (ev):

   -91.6789 -51.3988 -51.3825 -51.3668   6.3497   7.3484   7.6845   7.7198
     7.8422   8.2956   9.2229   9.2646   9.6538   9.8968  10.0307  10.1663
    10.6220  10.9200  11.2330  11.5039  12.5653  13.8785  16.4735  19.6034

          k = 0.2500-0.2500 0.7500 (  1374 PWs)   bands (ev):

   -91.6791 -51.3974 -51.3841 -51.3836   6.4681   7.0980   7.6035   7.7886
     7.8595   8.4979   8.8834   9.5290   9.6997   9.8434  10.1063  10.2591
    10.6774  10.9903  11.3493  11.4462  12.2490  14.5407  15.3738  19.3268

          k =-0.2500 0.5833 0.2500 (  1384 PWs)   bands (ev):

   -91.6800 -51.4357 -51.4170 -51.4041   5.7778   7.2827   7.6908   7.7373
     7.8753   8.2365   8.8991   9.4328   9.6144   9.8083  10.1099  10.1987
    10.7680  10.8336  11.2129  11.3895  13.0518  16.2967  16.3446  19.4673

          k = 0.5833-0.2500 1.0833 (  1378 PWs)   bands (ev):

   -91.6794 -51.4320 -51.3895 -51.3757   6.5823   7.1212   7.6250   7.7254
     7.9087   8.4728   9.0248   9.4540   9.7000   9.8357  10.1414  10.2099
    10.5387  11.1304  11.2799  11.5268  12.4323  13.7312  15.0455  20.8753

          k = 0.4167-0.0833 0.9167 (  1381 PWs)   bands (ev):

   -91.6796 -51.4244 -51.4119 -51.3816   6.9338   7.1215   7.5463   7.6613
     7.9673   8.7320   9.0045   9.2581   9.8201   9.9481  10.1490  10.2104
    10.4651  11.2708  11.5721  11.7832  12.0873  12.9224  13.8493  20.9709

          k =-0.2500-1.0833 0.2500 (  1377 PWs)   bands (ev):

   -91.6792 -51.4095 -51.3910 -51.3831   6.7894   7.2731   7.5316   7.7250
     7.8186   8.7517   8.8547   9.2717   9.8787   9.9848  10.1125  10.3365
    10.5502  11.1817  11.5113  11.6215  11.9478  13.0161  14.8255  19.2849

          k =-0.4167 0.4167 0.4167 (  1389 PWs)   bands (ev):

   -91.6804 -51.4429 -51.4276 -51.4276   5.7891   7.6195   7.6195   7.7711
     8.1090   8.1090   8.5532   9.3910   9.3910   9.8717   9.8717  10.0418
    10.8496  10.8496  11.3560  11.3560  12.4234  17.7730  17.7730  19.9586

          k = 0.4167-0.4167 1.2500 (  1385 PWs)   bands (ev):

   -91.6800 -51.4324 -51.4136 -51.4122   6.2740   7.3725   7.6832   7.7941
     7.8940   8.2557   9.0112   9.3647   9.5030   9.8619   9.8873  10.0803
    10.7306  10.9270  11.2914  11.4291  12.0117  15.3896  16.7507  19.6152

     the Fermi energy is    11.5037 ev

!    total energy              =   -1388.94676581 Ry

     total all-electron energy =    -43178.446547 Ry
     estimated scf accuracy    <       0.00000089 Ry
     smearing contrib. (-TS)   =      -0.00474076 Ry
     internal energy E=F+TS    =   -1388.94202505 Ry

     The total energy is F=E-TS. E is the sum of the following terms:
     one-electron contribution =    -290.12356425 Ry
     hartree contribution      =     181.21449985 Ry
     xc contribution           =    -102.72658775 Ry
     ewald contribution        =    -311.79126865 Ry
     one-center paw contrib.   =    -865.51510424 Ry

     convergence has been achieved in  12 iterations

     Writing output data file ././cunipt.save/

     init_run     :      1.58s CPU      1.62s WALL (       1 calls)
     electrons    :     27.34s CPU     28.06s WALL (       1 calls)

     Called by init_run:
     wfcinit      :      0.60s CPU      0.60s WALL (       1 calls)
     potinit      :      0.36s CPU      0.38s WALL (       1 calls)
     hinit0       :      0.57s CPU      0.57s WALL (       1 calls)

     Called by electrons:
     c_bands      :     20.43s CPU     21.14s WALL (      12 calls)
     sum_band     :      2.26s CPU      2.27s WALL (      12 calls)
     v_of_rho     :      0.09s CPU      0.10s WALL (      13 calls)
     newd         :      0.48s CPU      0.50s WALL (      13 calls)
     PAW_pot      :      4.44s CPU      4.46s WALL (      13 calls)
     mix_rho      :      0.01s CPU      0.01s WALL (      12 calls)

     Called by c_bands:
     init_us_2    :      0.31s CPU      0.31s WALL (     700 calls)
     cegterg      :     19.37s CPU     20.07s WALL (     336 calls)

     Called by *egterg:
     cdiaghg      :      0.81s CPU      0.81s WALL (    1524 calls)
     h_psi        :      9.18s CPU      9.22s WALL (    1552 calls)
     s_psi        :      2.28s CPU      2.29s WALL (    1552 calls)
     g_psi        :      0.09s CPU      0.09s WALL (    1188 calls)

     Called by h_psi:
     h_psi:calbec :      2.09s CPU      2.10s WALL (    1552 calls)
     vloc_psi     :      4.75s CPU      4.78s WALL (    1552 calls)
     add_vuspsi   :      2.28s CPU      2.28s WALL (    1552 calls)

     General routines
     calbec       :      2.82s CPU      2.83s WALL (    1888 calls)
     fft          :      0.02s CPU      0.02s WALL (     143 calls)
     ffts         :      0.00s CPU      0.00s WALL (      12 calls)
     fftw         :      4.05s CPU      4.08s WALL (   53050 calls)

     Parallel routines

     PWSCF        :     29.16s CPU     29.95s WALL


   This run was terminated on:  23: 1:56  13Sep2024            

=------------------------------------------------------------------------------=
   JOB DONE.
=------------------------------------------------------------------------------=
