
     Program PWSCF v.6.7MaX starts on 13Sep2024 at 23: 0:32 

     This program is part of the open-source Quantum ESPRESSO suite
     for quantum simulation of materials; please cite
         "P. Giannozzi et al., J. Phys.:Condens. Matter 21 395502 (2009);
         "P. Giannozzi et al., J. Phys.:Condens. Matter 29 465901 (2017);
          URL http://www.quantum-espresso.org", 
     in publications or presentations arising from this work. More details at
     http://www.quantum-espresso.org/quote

     Parallel version (MPI), running on     1 processors

     MPI processes distributed on     1 nodes
     Waiting for input...
     Reading input from standard input

     Current dimensions of program PWSCF are:
     Max number of different atomic species (ntypx) = 10
     Max number of k-points (npk) =  40000
     Max angular momentum in pseudopotentials (lmaxx) =  3
     file Cu.upf: wavefunction(s)  4S 3D renormalized
     file Ni.upf: wavefunction(s)  3P 3D renormalized
     file Pt.upf: wavefunction(s)  6S 5D renormalized

     Subspace diagonalization in iterative solution of the eigenvalue problem:
     a serial algorithm will be used


     G-vector sticks info
     --------------------
     sticks:   dense  smooth     PW     G-vecs:    dense   smooth      PW
     Sum         499     499    163                 7239     7239    1363



     bravais-lattice index     =            2
     lattice parameter (alat)  =      10.8900  a.u.
     unit-cell volume          =     322.8670 (a.u.)^3
     number of atoms/cell      =            3
     number of atomic types    =            3
     number of electrons       =        39.00
     number of Kohn-Sham states=           24
     kinetic-energy cutoff     =      30.0000  Ry
     charge density cutoff     =     120.0000  Ry
     scf convergence threshold =      1.0E-06
     mixing beta               =       0.6000
     number of iterations used =            8  plain     mixing
     Exchange-correlation= SLA  PW   PBX  PBC
                           (   1   4   3   4   0   0   0)

     celldm(1)=  10.890000  celldm(2)=   0.000000  celldm(3)=   0.000000
     celldm(4)=   0.000000  celldm(5)=   0.000000  celldm(6)=   0.000000

     crystal axes: (cart. coord. in units of alat)
               a(1) = (  -0.500000   0.000000   0.500000 )  
               a(2) = (   0.000000   0.500000   0.500000 )  
               a(3) = (  -0.500000   0.500000   0.000000 )  

     reciprocal axes: (cart. coord. in units 2 pi/alat)
               b(1) = ( -1.000000 -1.000000  1.000000 )  
               b(2) = (  1.000000  1.000000  1.000000 )  
               b(3) = ( -1.000000  1.000000 -1.000000 )  


     PseudoPot. # 1 for Cu read from file:
     ././Cu.upf
     MD5 check sum: cfffd1f38ee05704b3e17f46f1730a6f
     Pseudo is Projector augmented-wave + core cor, Zval = 11.0
     Generated using &quot;atomic&quot; code by A. Dal Corso  v.6.3
     Shape of augmentation charge: PSQ
     Using radial grid of 1199 points,  6 beta functions with: 
                l(1) =   0
                l(2) =   0
                l(3) =   1
                l(4) =   1
                l(5) =   2
                l(6) =   2
     Q(r) pseudized with 0 coefficients 


     PseudoPot. # 2 for Ni read from file:
     ././Ni.upf
     MD5 check sum: 6e86b733589c3ad8389697b807d86aa7
     Pseudo is Projector augmented-wave + core cor, Zval = 18.0
     Generated using &quot;atomic&quot; code by A. Dal Corso  v.6.3
     Shape of augmentation charge: PSQ
     Using radial grid of 1195 points,  6 beta functions with: 
                l(1) =   0
                l(2) =   0
                l(3) =   1
                l(4) =   1
                l(5) =   2
                l(6) =   2
     Q(r) pseudized with 0 coefficients 


     PseudoPot. # 3 for Pt read from file:
     ././Pt.upf
     MD5 check sum: c5224e9cd7a5e36e81f2def9f50bb494
     Pseudo is Projector augmented-wave + core cor, Zval = 10.0
     Generated using &quot;atomic&quot; code by A. Dal Corso  v.6.3
     Shape of augmentation charge: PSQ
     Using radial grid of 1277 points,  6 beta functions with: 
                l(1) =   0
                l(2) =   0
                l(3) =   1
                l(4) =   1
                l(5) =   2
                l(6) =   2
     Q(r) pseudized with 0 coefficients 


     atomic species   valence    mass     pseudopotential
        Cu            11.00    63.54600     Cu( 1.00)
        Ni            18.00    58.69300     Ni( 1.00)
        Pt            10.00   195.08000     Pt( 1.00)

     24 Sym. Ops. (no inversion) found



   Cartesian axes

     site n.     atom                  positions (alat units)
         1           Cu  tau(   1) = (   0.0000000   0.0000000   0.0000000  )
         2           Ni  tau(   2) = (   0.5000000   0.5000000   0.5000000  )
         3           Pt  tau(   3) = (   0.2500000   0.2500000   0.2500000  )

     number of k points=    28  Gaussian smearing, width (Ry)=  0.0100
                       cart. coord. in units 2pi/alat
        k(    1) = (  -0.0833333   0.0833333   0.0833333), wk =   0.0185185
        k(    2) = (  -0.2500000   0.2500000  -0.0833333), wk =   0.0555556
        k(    3) = (  -0.4166667   0.4166667  -0.2500000), wk =   0.0555556
        k(    4) = (   0.4166667  -0.4166667   0.5833333), wk =   0.0555556
        k(    5) = (   0.2500000  -0.2500000   0.4166667), wk =   0.0555556
        k(    6) = (   0.0833333  -0.0833333   0.2500000), wk =   0.0555556
        k(    7) = (  -0.0833333   0.4166667   0.0833333), wk =   0.0555556
        k(    8) = (  -0.2500000   0.5833333  -0.0833333), wk =   0.1111111
        k(    9) = (   0.5833333  -0.2500000   0.7500000), wk =   0.1111111
        k(   10) = (   0.4166667  -0.0833333   0.5833333), wk =   0.1111111
        k(   11) = (   0.2500000   0.0833333   0.4166667), wk =   0.1111111
        k(   12) = (  -0.0833333   0.7500000   0.0833333), wk =   0.0555556
        k(   13) = (   0.7500000  -0.0833333   0.9166667), wk =   0.1111111
        k(   14) = (   0.5833333   0.0833333   0.7500000), wk =   0.1111111
        k(   15) = (   0.4166667   0.2500000   0.5833333), wk =   0.1111111
        k(   16) = (  -0.0833333  -0.9166667   0.0833333), wk =   0.0555556
        k(   17) = (  -0.2500000  -0.7500000  -0.0833333), wk =   0.1111111
        k(   18) = (  -0.0833333  -0.5833333   0.0833333), wk =   0.0555556
        k(   19) = (  -0.2500000   0.2500000   0.2500000), wk =   0.0185185
        k(   20) = (  -0.4166667   0.4166667   0.0833333), wk =   0.0555556
        k(   21) = (   0.4166667  -0.4166667   0.9166667), wk =   0.0555556
        k(   22) = (   0.2500000  -0.2500000   0.7500000), wk =   0.0555556
        k(   23) = (  -0.2500000   0.5833333   0.2500000), wk =   0.0555556
        k(   24) = (   0.5833333  -0.2500000   1.0833333), wk =   0.1111111
        k(   25) = (   0.4166667  -0.0833333   0.9166667), wk =   0.1111111
        k(   26) = (  -0.2500000  -1.0833333   0.2500000), wk =   0.0555556
        k(   27) = (  -0.4166667   0.4166667   0.4166667), wk =   0.0185185
        k(   28) = (   0.4166667  -0.4166667   1.2500000), wk =   0.0555556

     Dense  grid:     7239 G-vectors     FFT dimensions: (  27,  27,  27)

     Estimated max dynamical RAM per process >      38.35 MB

     Check: negative core charge=   -0.000039

     Initial potential from superposition of free atoms

     starting charge   38.99935, renormalised to   39.00000

     negative rho (up, down):  1.078E-04 0.000E+00
     Starting wfcs are   28 randomized atomic wfcs
     Checking if some PAW data can be deallocated... 

     total cpu time spent up to now is        1.7 secs

     Self-consistent Calculation

     iteration #  1     ecut=    30.00 Ry     beta= 0.60
     Davidson diagonalization with overlap
     ethr =  1.00E-02,  avg # of iterations =  4.2

     negative rho (up, down):  6.185E-05 0.000E+00

     total cpu time spent up to now is        3.8 secs

     total energy              =   -1384.61867735 Ry
     estimated scf accuracy    <       1.22276121 Ry

     iteration #  2     ecut=    30.00 Ry     beta= 0.60
     Davidson diagonalization with overlap
     ethr =  3.14E-03,  avg # of iterations =  3.0

     negative rho (up, down):  1.040E-04 0.000E+00

     total cpu time spent up to now is        5.8 secs

     total energy              =   -1384.47412849 Ry
     estimated scf accuracy    <       6.43642195 Ry

     iteration #  3     ecut=    30.00 Ry     beta= 0.60
     Davidson diagonalization with overlap
     ethr =  3.14E-03,  avg # of iterations =  2.0

     negative rho (up, down):  1.602E-04 0.000E+00

     total cpu time spent up to now is        7.8 secs

     total energy              =   -1385.06771437 Ry
     estimated scf accuracy    <       0.62561993 Ry

     iteration #  4     ecut=    30.00 Ry     beta= 0.60
     Davidson diagonalization with overlap
     ethr =  1.60E-03,  avg # of iterations =  2.0

     negative rho (up, down):  1.964E-04 0.000E+00

     total cpu time spent up to now is        9.6 secs

     total energy              =   -1385.13915701 Ry
     estimated scf accuracy    <       0.12937369 Ry

     iteration #  5     ecut=    30.00 Ry     beta= 0.60
     Davidson diagonalization with overlap
     ethr =  3.32E-04,  avg # of iterations =  2.2

     negative rho (up, down):  2.146E-04 0.000E+00

     total cpu time spent up to now is       11.5 secs

     total energy              =   -1385.14446666 Ry
     estimated scf accuracy    <       0.16592134 Ry

     iteration #  6     ecut=    30.00 Ry     beta= 0.60
     Davidson diagonalization with overlap
     ethr =  3.32E-04,  avg # of iterations =  1.0

     negative rho (up, down):  2.065E-04 0.000E+00

     total cpu time spent up to now is       13.1 secs

     total energy              =   -1385.16671640 Ry
     estimated scf accuracy    <       0.01763928 Ry

     iteration #  7     ecut=    30.00 Ry     beta= 0.60
     Davidson diagonalization with overlap
     ethr =  4.52E-05,  avg # of iterations =  3.8

     negative rho (up, down):  2.069E-04 0.000E+00

     total cpu time spent up to now is       14.9 secs

     total energy              =   -1385.16894743 Ry
     estimated scf accuracy    <       0.00025048 Ry

     iteration #  8     ecut=    30.00 Ry     beta= 0.60
     Davidson diagonalization with overlap
     ethr =  6.42E-07,  avg # of iterations =  6.8

     negative rho (up, down):  2.054E-04 0.000E+00

     total cpu time spent up to now is       17.6 secs

     total energy              =   -1385.16912914 Ry
     estimated scf accuracy    <       0.00020395 Ry

     iteration #  9     ecut=    30.00 Ry     beta= 0.60
     Davidson diagonalization with overlap
     ethr =  5.23E-07,  avg # of iterations =  2.0

     negative rho (up, down):  2.051E-04 0.000E+00

     total cpu time spent up to now is       19.5 secs

     total energy              =   -1385.16911721 Ry
     estimated scf accuracy    <       0.00029307 Ry

     iteration # 10     ecut=    30.00 Ry     beta= 0.60
     Davidson diagonalization with overlap
     ethr =  5.23E-07,  avg # of iterations =  1.5

     negative rho (up, down):  2.054E-04 0.000E+00

     total cpu time spent up to now is       21.3 secs

     total energy              =   -1385.16914803 Ry
     estimated scf accuracy    <       0.00029236 Ry

     iteration # 11     ecut=    30.00 Ry     beta= 0.60
     Davidson diagonalization with overlap
     ethr =  5.23E-07,  avg # of iterations =  1.0

     negative rho (up, down):  2.056E-04 0.000E+00

     total cpu time spent up to now is       22.9 secs

     total energy              =   -1385.16916485 Ry
     estimated scf accuracy    <       0.00000266 Ry

     iteration # 12     ecut=    30.00 Ry     beta= 0.60
     Davidson diagonalization with overlap
     ethr =  6.82E-09,  avg # of iterations =  3.0

     negative rho (up, down):  2.055E-04 0.000E+00

     total cpu time spent up to now is       24.9 secs

     End of self-consistent calculation

          k =-0.0833 0.0833 0.0833 (   908 PWs)   bands (ev):

   -96.1429 -51.3658 -51.3658 -51.3150   4.0348   7.7471   7.7471   7.8694
     7.8844   7.8844   9.1331   9.1331   9.1713  10.5465  10.5465  10.7018
    10.7018  10.7985  11.3309  11.3309  19.0565  20.3818  20.3818  20.5491

          k =-0.2500 0.2500-0.0833 (   905 PWs)   bands (ev):

   -96.1350 -51.4481 -51.2213 -51.1128   4.5671   7.7565   7.7571   7.8570
     7.9288   7.9989   9.1558   9.1949   9.3523  10.3843  10.4086  10.5497
    10.8335  10.8671  11.2783  11.3365  16.3908  17.8132  19.9998  20.7523

          k =-0.4167 0.4167-0.2500 (   894 PWs)   bands (ev):

   -96.1147 -51.1341 -51.0714 -50.7948   5.6730   7.7008   7.7889   7.8793
     8.1868   8.2020   9.0054   9.3779   9.5979  10.0923  10.2480  10.2721
    11.0212  11.0651  11.4521  11.6315  13.1819  16.9835  18.2726  20.0286

          k = 0.4167-0.4167 0.5833 (   891 PWs)   bands (ev):

   -96.1092 -51.0416 -50.9609 -50.7878   6.2259   7.6797   7.8126   8.0180
     8.1479   8.3496   8.7858   9.5597   9.6466   9.9857  10.0421  10.2016
    11.1145  11.1417  11.6177  11.6616  12.1183  17.1002  17.3424  19.7445

          k = 0.2500-0.2500 0.4167 (   897 PWs)   bands (ev):

   -96.1197 -51.2728 -51.1437 -50.7925   5.2836   7.6496   7.8440   7.8553
     8.0627   8.1823   9.0611   9.3509   9.5035  10.2223  10.3129  10.4034
    10.9092  10.9602  11.4434  11.5307  14.1054  17.5662  18.2027  19.9111

          k = 0.0833-0.0833 0.2500 (   904 PWs)   bands (ev):

   -96.1357 -51.3564 -51.2365 -51.1766   4.3074   7.6957   7.8247   7.8430
     7.9105   7.9421   9.0602   9.2656   9.3031  10.4387  10.5498  10.7105
    10.7784  10.8104  11.2953  11.3640  17.6746  18.7343  19.5720  20.5055

          k =-0.0833 0.4167 0.0833 (   893 PWs)   bands (ev):

   -96.1153 -51.1628 -51.1035 -50.7313   4.8416   7.5384   7.8298   7.9416
     7.9747   8.0975   8.9602   9.5271   9.5449  10.4216  10.5087  10.6925
    10.8920  10.9437  11.1993  11.6814  16.3257  17.2037  17.9233  19.7211

          k =-0.2500 0.5833-0.0833 (   895 PWs)   bands (ev):

   -96.1150 -51.1352 -51.0764 -50.8309   5.7839   7.3693   7.7971   7.9426
     8.0151   8.3831   8.9954   9.6656   9.8214  10.0474  10.3872  10.4833
    10.8805  11.0457  11.2419  11.6298  14.0503  15.3943  16.5333  19.9640

          k = 0.5833-0.2500 0.7500 (   891 PWs)   bands (ev):

   -96.1074 -51.0238 -50.9142 -50.8068   6.6351   7.3882   7.8356   7.9126
     8.0417   8.5561   9.2182   9.5600   9.7541  10.0872  10.2015  10.3241
    10.9436  11.2522  11.5160  11.7119  12.0456  14.9072  15.8355  19.9926

          k = 0.4167-0.0833 0.5833 (   895 PWs)   bands (ev):

   -96.1149 -51.1548 -51.0779 -50.8058   6.1085   7.4690   7.8372   7.8937
     8.0489   8.3686   9.1890   9.5015   9.8134   9.9279  10.3167  10.3524
    10.8499  11.1567  11.2833  11.6537  13.2820  14.6735  16.9139  20.4083

          k = 0.2500 0.0833 0.4167 (   898 PWs)   bands (ev):

   -96.1212 -51.2953 -51.1262 -50.8497   5.0734   7.5913   7.8343   7.8909
     7.9931   8.1343   9.0591   9.3976   9.5558  10.2789  10.3925  10.4575
    10.8666  11.0091  11.2854  11.5402  15.1770  16.5838  18.4841  20.3024

          k =-0.0833 0.7500 0.0833 (   899 PWs)   bands (ev):

   -96.1177 -51.1750 -51.0794 -50.9668   6.5097   7.0927   7.5940   8.0392
     8.0412   8.7250   8.7360   9.8937   9.9405  10.0050  10.3361  10.6178
    10.8951  11.1760  11.3083  11.5470  13.5668  14.4436  14.6459  19.2552

          k = 0.7500-0.0833 0.9167 (   900 PWs)   bands (ev):

   -96.1181 -51.2153 -51.0874 -50.9559   6.9955   7.3707   7.6032   7.8614
     8.0841   8.7870   9.0531   9.4336   9.9551  10.1411  10.3595  10.5348
    10.7242  11.3646  11.6730  11.8911  12.2923  13.1427  14.0108  19.7406

          k = 0.5833 0.0833 0.7500 (   898 PWs)   bands (ev):

   -96.1172 -51.1684 -51.0430 -50.9509   6.8525   7.3948   7.7732   7.8445
     8.0160   8.7035   9.2549   9.3936   9.9414  10.0823  10.2498  10.3785
    10.7708  11.1908  11.4443  11.7100  12.2403  13.4175  15.3332  20.0258

          k = 0.4167 0.2500 0.5833 (   896 PWs)   bands (ev):

   -96.1165 -51.1218 -51.0428 -50.9308   6.1671   7.5435   7.8300   7.9258
     8.0885   8.3658   9.0794   9.4738   9.7109   9.9261  10.1468  10.2545
    10.9830  11.1169  11.4095  11.6364  12.4591  16.0666  17.0434  19.9366

          k =-0.0833-0.9167 0.0833 (   899 PWs)   bands (ev):

   -96.1150 -51.2171 -51.0614 -50.8895   6.9537   7.3516   7.6068   7.9972
     8.0607   8.4774   9.1198   9.5443   9.9680  10.0096  10.4144  10.6135
    10.9340  11.4944  11.5763  11.8103  12.5183  13.4365  13.8629  19.2102

          k =-0.2500-0.7500-0.0833 (   891 PWs)   bands (ev):

   -96.1074 -51.0168 -50.9291 -50.8081   6.6079   7.1636   7.6876   7.9657
     8.0722   8.7075   8.9273   9.7675   9.9356  10.0342  10.4216  10.5397
    10.8830  11.2202  11.4496  11.7252  13.0734  14.2735  14.9049  19.8096

          k =-0.0833-0.5833 0.0833 (   891 PWs)   bands (ev):

   -96.1090 -51.0638 -51.0331 -50.6918   5.6023   7.3071   7.7314   8.0084
     8.0212   8.3776   8.8855   9.7949   9.8181  10.2198  10.4777  10.6434
    10.9615  11.0345  11.1648  11.6663  14.9468  15.8356  16.0157  19.4029

          k =-0.2500 0.2500 0.2500 (   896 PWs)   bands (ev):

   -96.1206 -51.2399 -51.2399 -50.7350   4.8151   7.7848   7.7848   7.8201
     8.0329   8.0329   9.1777   9.3094   9.3094  10.3691  10.3691  10.7341
    10.9096  10.9096  11.3772  11.3772  15.2728  18.8446  18.8446  20.2725

          k =-0.4167 0.4167 0.0833 (   895 PWs)   bands (ev):

   -96.1165 -51.2281 -51.0626 -50.7805   5.5154   7.6201   7.7948   7.8770
     8.1272   8.1490   9.2317   9.2907   9.6522  10.0831  10.3579  10.4195
    10.8922  11.0870  11.3214  11.5855  14.1573  15.6128  18.4303  20.1628

          k = 0.4167-0.4167 0.9167 (   893 PWs)   bands (ev):

   -96.1111 -51.0384 -50.9901 -50.8576   6.5006   7.5032   7.8378   7.8740
     8.0016   8.4945   9.3551   9.3809   9.7999  10.0277  10.2800  10.3308
    10.9416  11.1137  11.3909  11.7122  12.6646  13.9941  16.6305  19.6368

          k = 0.2500-0.2500 0.7500 (   892 PWs)   bands (ev):

   -96.1089 -51.0307 -50.9807 -50.8019   6.6242   7.2630   7.7618   7.9443
     8.0213   8.6653   9.0418   9.6790   9.8582  10.0392  10.3060  10.4142
    11.0288  11.1245  11.5169  11.6399  12.3980  14.6854  15.5275  19.3893

          k =-0.2500 0.5833 0.2500 (   896 PWs)   bands (ev):

   -96.1169 -51.1686 -51.1667 -50.7802   5.9276   7.4395   7.8603   7.8837
     8.0377   8.3923   9.0406   9.5731   9.7634   9.9757  10.3049  10.3516
    10.8691  11.0328  11.3901  11.5782  13.1534  16.4169  16.4712  19.5193

          k = 0.5833-0.2500 1.0833 (   899 PWs)   bands (ev):

   -96.1192 -51.1651 -51.0917 -50.9906   6.7350   7.2790   7.7669   7.8757
     8.0728   8.6250   9.1555   9.5882   9.8376  10.0115  10.2774  10.3673
    10.6756  11.2512  11.4298  11.6501  12.5417  13.8311  15.1515  20.8979

          k = 0.4167-0.0833 0.9167 (   898 PWs)   bands (ev):

   -96.1176 -51.1984 -51.0196 -50.9630   7.0913   7.2727   7.6880   7.8183
     8.1403   8.8811   9.1358   9.3777   9.9851  10.1303  10.3502  10.3913
    10.5964  11.2973  11.7298  11.9593  12.2076  13.0565  13.9501  21.0436

          k =-0.2500-1.0833 0.2500 (   893 PWs)   bands (ev):

   -96.1088 -51.0653 -50.8918 -50.8785   6.9481   7.4278   7.6887   7.8915
     7.9776   8.9247   9.0171   9.3995  10.0640  10.1541  10.3207  10.4773
    10.9290  11.2918  11.6785  11.7989  12.1080  13.1417  14.9931  19.3598

          k =-0.4167 0.4167 0.4167 (   893 PWs)   bands (ev):

   -96.1127 -51.0876 -51.0876 -50.7556   5.9401   7.7858   7.7858   7.9231
     8.2667   8.2667   8.6902   9.5345   9.5345  10.0632  10.0632  10.2147
    11.0846  11.0846  11.6149  11.6149  12.5063  17.8635  17.8635  19.9577

          k = 0.4167-0.4167 1.2500 (   899 PWs)   bands (ev):

   -96.1190 -51.1601 -51.0676 -51.0118   6.4263   7.5277   7.8384   7.9368
     8.0401   8.4131   9.1481   9.4904   9.6516   9.9926  10.0691  10.1899
    10.9807  11.1640  11.3777  11.5677  12.0488  15.5149  16.8690  19.6414

     the Fermi energy is    11.6913 ev

!    total energy              =   -1385.16916544 Ry

     total all-electron energy =    -43174.668947 Ry
     estimated scf accuracy    <       0.00000011 Ry
     smearing contrib. (-TS)   =      -0.00468264 Ry
     internal energy E=F+TS    =   -1385.16448280 Ry

     The total energy is F=E-TS. E is the sum of the following terms:
     one-electron contribution =    -283.11883708 Ry
     hartree contribution      =     177.39350168 Ry
     xc contribution           =    -102.45886255 Ry
     ewald contribution        =    -311.79126864 Ry
     one-center paw contrib.   =    -865.18901620 Ry

     convergence has been achieved in  12 iterations

     Writing output data file ././cunipt.save/

     init_run     :      1.42s CPU      1.43s WALL (       1 calls)
     electrons    :     23.32s CPU     23.28s WALL (       1 calls)

     Called by init_run:
     wfcinit      :      0.53s CPU      0.52s WALL (       1 calls)
     potinit      :      0.36s CPU      0.38s WALL (       1 calls)
     hinit0       :      0.50s CPU      0.49s WALL (       1 calls)

     Called by electrons:
     c_bands      :     16.35s CPU     16.32s WALL (      12 calls)
     sum_band     :      2.39s CPU      2.40s WALL (      12 calls)
     v_of_rho     :      0.08s CPU      0.08s WALL (      13 calls)
     newd         :      0.33s CPU      0.34s WALL (      13 calls)
     PAW_pot      :      4.54s CPU      4.53s WALL (      13 calls)
     mix_rho      :      0.01s CPU      0.01s WALL (      12 calls)

     Called by c_bands:
     init_us_2    :      0.22s CPU      0.22s WALL (     700 calls)
     cegterg      :     15.62s CPU     15.59s WALL (     336 calls)

     Called by *egterg:
     cdiaghg      :      0.71s CPU      0.71s WALL (    1249 calls)
     h_psi        :      9.71s CPU      9.69s WALL (    1277 calls)
     s_psi        :      1.41s CPU      1.41s WALL (    1277 calls)
     g_psi        :      0.05s CPU      0.05s WALL (     913 calls)

     Called by h_psi:
     h_psi:calbec :      1.29s CPU      1.29s WALL (    1277 calls)
     vloc_psi     :      6.97s CPU      6.97s WALL (    1277 calls)
     add_vuspsi   :      1.41s CPU      1.40s WALL (    1277 calls)

     General routines
     calbec       :      1.80s CPU      1.79s WALL (    1613 calls)
     fft          :      0.03s CPU      0.03s WALL (     143 calls)
     ffts         :      0.00s CPU      0.00s WALL (      12 calls)
     fftw         :      7.46s CPU      7.46s WALL (   48846 calls)

     Parallel routines

     PWSCF        :     24.98s CPU     24.97s WALL


   This run was terminated on:  23: 0:57  13Sep2024            

=------------------------------------------------------------------------------=
   JOB DONE.
=------------------------------------------------------------------------------=
