
     Program PWSCF v.6.7MaX starts on 13Sep2024 at 23: 0:57 

     This program is part of the open-source Quantum ESPRESSO suite
     for quantum simulation of materials; please cite
         "P. Giannozzi et al., J. Phys.:Condens. Matter 21 395502 (2009);
         "P. Giannozzi et al., J. Phys.:Condens. Matter 29 465901 (2017);
          URL http://www.quantum-espresso.org", 
     in publications or presentations arising from this work. More details at
     http://www.quantum-espresso.org/quote

     Parallel version (MPI), running on     1 processors

     MPI processes distributed on     1 nodes
     Waiting for input...
     Reading input from standard input

     Current dimensions of program PWSCF are:
     Max number of different atomic species (ntypx) = 10
     Max number of k-points (npk) =  40000
     Max angular momentum in pseudopotentials (lmaxx) =  3
     file Cu.upf: wavefunction(s)  4S 3D renormalized
     file Ni.upf: wavefunction(s)  3P 3D renormalized
     file Pt.upf: wavefunction(s)  6S 5D renormalized

     Subspace diagonalization in iterative solution of the eigenvalue problem:
     a serial algorithm will be used


     G-vector sticks info
     --------------------
     sticks:   dense  smooth     PW     G-vecs:    dense   smooth      PW
     Sum         583     583    187                 9185     9185    1639



     bravais-lattice index     =            2
     lattice parameter (alat)  =      10.8900  a.u.
     unit-cell volume          =     322.8670 (a.u.)^3
     number of atoms/cell      =            3
     number of atomic types    =            3
     number of electrons       =        39.00
     number of Kohn-Sham states=           24
     kinetic-energy cutoff     =      35.0000  Ry
     charge density cutoff     =     140.0000  Ry
     scf convergence threshold =      1.0E-06
     mixing beta               =       0.6000
     number of iterations used =            8  plain     mixing
     Exchange-correlation= SLA  PW   PBX  PBC
                           (   1   4   3   4   0   0   0)

     celldm(1)=  10.890000  celldm(2)=   0.000000  celldm(3)=   0.000000
     celldm(4)=   0.000000  celldm(5)=   0.000000  celldm(6)=   0.000000

     crystal axes: (cart. coord. in units of alat)
               a(1) = (  -0.500000   0.000000   0.500000 )  
               a(2) = (   0.000000   0.500000   0.500000 )  
               a(3) = (  -0.500000   0.500000   0.000000 )  

     reciprocal axes: (cart. coord. in units 2 pi/alat)
               b(1) = ( -1.000000 -1.000000  1.000000 )  
               b(2) = (  1.000000  1.000000  1.000000 )  
               b(3) = ( -1.000000  1.000000 -1.000000 )  


     PseudoPot. # 1 for Cu read from file:
     ././Cu.upf
     MD5 check sum: cfffd1f38ee05704b3e17f46f1730a6f
     Pseudo is Projector augmented-wave + core cor, Zval = 11.0
     Generated using &quot;atomic&quot; code by A. Dal Corso  v.6.3
     Shape of augmentation charge: PSQ
     Using radial grid of 1199 points,  6 beta functions with: 
                l(1) =   0
                l(2) =   0
                l(3) =   1
                l(4) =   1
                l(5) =   2
                l(6) =   2
     Q(r) pseudized with 0 coefficients 


     PseudoPot. # 2 for Ni read from file:
     ././Ni.upf
     MD5 check sum: 6e86b733589c3ad8389697b807d86aa7
     Pseudo is Projector augmented-wave + core cor, Zval = 18.0
     Generated using &quot;atomic&quot; code by A. Dal Corso  v.6.3
     Shape of augmentation charge: PSQ
     Using radial grid of 1195 points,  6 beta functions with: 
                l(1) =   0
                l(2) =   0
                l(3) =   1
                l(4) =   1
                l(5) =   2
                l(6) =   2
     Q(r) pseudized with 0 coefficients 


     PseudoPot. # 3 for Pt read from file:
     ././Pt.upf
     MD5 check sum: c5224e9cd7a5e36e81f2def9f50bb494
     Pseudo is Projector augmented-wave + core cor, Zval = 10.0
     Generated using &quot;atomic&quot; code by A. Dal Corso  v.6.3
     Shape of augmentation charge: PSQ
     Using radial grid of 1277 points,  6 beta functions with: 
                l(1) =   0
                l(2) =   0
                l(3) =   1
                l(4) =   1
                l(5) =   2
                l(6) =   2
     Q(r) pseudized with 0 coefficients 


     atomic species   valence    mass     pseudopotential
        Cu            11.00    63.54600     Cu( 1.00)
        Ni            18.00    58.69300     Ni( 1.00)
        Pt            10.00   195.08000     Pt( 1.00)

     24 Sym. Ops. (no inversion) found



   Cartesian axes

     site n.     atom                  positions (alat units)
         1           Cu  tau(   1) = (   0.0000000   0.0000000   0.0000000  )
         2           Ni  tau(   2) = (   0.5000000   0.5000000   0.5000000  )
         3           Pt  tau(   3) = (   0.2500000   0.2500000   0.2500000  )

     number of k points=    28  Gaussian smearing, width (Ry)=  0.0100
                       cart. coord. in units 2pi/alat
        k(    1) = (  -0.0833333   0.0833333   0.0833333), wk =   0.0185185
        k(    2) = (  -0.2500000   0.2500000  -0.0833333), wk =   0.0555556
        k(    3) = (  -0.4166667   0.4166667  -0.2500000), wk =   0.0555556
        k(    4) = (   0.4166667  -0.4166667   0.5833333), wk =   0.0555556
        k(    5) = (   0.2500000  -0.2500000   0.4166667), wk =   0.0555556
        k(    6) = (   0.0833333  -0.0833333   0.2500000), wk =   0.0555556
        k(    7) = (  -0.0833333   0.4166667   0.0833333), wk =   0.0555556
        k(    8) = (  -0.2500000   0.5833333  -0.0833333), wk =   0.1111111
        k(    9) = (   0.5833333  -0.2500000   0.7500000), wk =   0.1111111
        k(   10) = (   0.4166667  -0.0833333   0.5833333), wk =   0.1111111
        k(   11) = (   0.2500000   0.0833333   0.4166667), wk =   0.1111111
        k(   12) = (  -0.0833333   0.7500000   0.0833333), wk =   0.0555556
        k(   13) = (   0.7500000  -0.0833333   0.9166667), wk =   0.1111111
        k(   14) = (   0.5833333   0.0833333   0.7500000), wk =   0.1111111
        k(   15) = (   0.4166667   0.2500000   0.5833333), wk =   0.1111111
        k(   16) = (  -0.0833333  -0.9166667   0.0833333), wk =   0.0555556
        k(   17) = (  -0.2500000  -0.7500000  -0.0833333), wk =   0.1111111
        k(   18) = (  -0.0833333  -0.5833333   0.0833333), wk =   0.0555556
        k(   19) = (  -0.2500000   0.2500000   0.2500000), wk =   0.0185185
        k(   20) = (  -0.4166667   0.4166667   0.0833333), wk =   0.0555556
        k(   21) = (   0.4166667  -0.4166667   0.9166667), wk =   0.0555556
        k(   22) = (   0.2500000  -0.2500000   0.7500000), wk =   0.0555556
        k(   23) = (  -0.2500000   0.5833333   0.2500000), wk =   0.0555556
        k(   24) = (   0.5833333  -0.2500000   1.0833333), wk =   0.1111111
        k(   25) = (   0.4166667  -0.0833333   0.9166667), wk =   0.1111111
        k(   26) = (  -0.2500000  -1.0833333   0.2500000), wk =   0.0555556
        k(   27) = (  -0.4166667   0.4166667   0.4166667), wk =   0.0185185
        k(   28) = (   0.4166667  -0.4166667   1.2500000), wk =   0.0555556

     Dense  grid:     9185 G-vectors     FFT dimensions: (  30,  30,  30)

     Estimated max dynamical RAM per process >      48.22 MB

     Check: negative core charge=   -0.000009

     Initial potential from superposition of free atoms

     starting charge   38.99935, renormalised to   39.00000
     Starting wfcs are   28 randomized atomic wfcs
     Checking if some PAW data can be deallocated... 

     total cpu time spent up to now is        2.0 secs

     Self-consistent Calculation

     iteration #  1     ecut=    35.00 Ry     beta= 0.60
     Davidson diagonalization with overlap
     ethr =  1.00E-02,  avg # of iterations =  4.7

     total cpu time spent up to now is        4.8 secs

     total energy              =   -1387.33633890 Ry
     estimated scf accuracy    <       0.94282927 Ry

     iteration #  2     ecut=    35.00 Ry     beta= 0.60
     Davidson diagonalization with overlap
     ethr =  2.42E-03,  avg # of iterations =  4.1

     total cpu time spent up to now is        8.0 secs

     total energy              =   -1386.25167291 Ry
     estimated scf accuracy    <      24.14878968 Ry

     iteration #  3     ecut=    35.00 Ry     beta= 0.60
     Davidson diagonalization with overlap
     ethr =  2.42E-03,  avg # of iterations =  3.7

     total cpu time spent up to now is       11.0 secs

     total energy              =   -1387.87150255 Ry
     estimated scf accuracy    <       0.31031535 Ry

     iteration #  4     ecut=    35.00 Ry     beta= 0.60
     Davidson diagonalization with overlap
     ethr =  7.96E-04,  avg # of iterations =  2.0

     total cpu time spent up to now is       13.6 secs

     total energy              =   -1387.91054527 Ry
     estimated scf accuracy    <       0.08626982 Ry

     iteration #  5     ecut=    35.00 Ry     beta= 0.60
     Davidson diagonalization with overlap
     ethr =  2.21E-04,  avg # of iterations =  2.0

     total cpu time spent up to now is       16.1 secs

     total energy              =   -1387.92773037 Ry
     estimated scf accuracy    <       0.04906327 Ry

     iteration #  6     ecut=    35.00 Ry     beta= 0.60
     Davidson diagonalization with overlap
     ethr =  1.26E-04,  avg # of iterations =  1.1

     total cpu time spent up to now is       18.3 secs

     total energy              =   -1387.93363205 Ry
     estimated scf accuracy    <       0.00091613 Ry

     iteration #  7     ecut=    35.00 Ry     beta= 0.60
     Davidson diagonalization with overlap
     ethr =  2.35E-06,  avg # of iterations =  7.9

     total cpu time spent up to now is       21.7 secs

     total energy              =   -1387.93413119 Ry
     estimated scf accuracy    <       0.00031804 Ry

     iteration #  8     ecut=    35.00 Ry     beta= 0.60
     Davidson diagonalization with overlap
     ethr =  8.15E-07,  avg # of iterations =  2.1

     total cpu time spent up to now is       24.1 secs

     total energy              =   -1387.93417970 Ry
     estimated scf accuracy    <       0.00006677 Ry

     iteration #  9     ecut=    35.00 Ry     beta= 0.60
     Davidson diagonalization with overlap
     ethr =  1.71E-07,  avg # of iterations =  2.3

     total cpu time spent up to now is       26.4 secs

     total energy              =   -1387.93419305 Ry
     estimated scf accuracy    <       0.00001071 Ry

     iteration # 10     ecut=    35.00 Ry     beta= 0.60
     Davidson diagonalization with overlap
     ethr =  2.75E-08,  avg # of iterations =  3.0

     total cpu time spent up to now is       29.0 secs

     End of self-consistent calculation

          k =-0.0833 0.0833 0.0833 (  1131 PWs)   bands (ev):

   -92.7725 -51.1809 -51.1121 -51.1121   3.9443   7.6556   7.6556   7.7781
     7.8077   7.8077   9.1002   9.1239   9.1239  10.4765  10.4765  10.7888
    10.8808  10.8808  11.3725  11.3725  18.9913  20.3345  20.3345  20.4838

          k =-0.2500 0.2500-0.0833 (  1137 PWs)   bands (ev):

   -92.7766 -51.2366 -51.2149 -51.1476   4.4762   7.6579   7.6723   7.7420
     7.8271   7.8931   9.0947   9.1454   9.3180  10.3450  10.3808  10.5430
    10.8074  10.8561  11.2272  11.3473  16.3299  17.7181  19.9400  20.7735

          k =-0.4167 0.4167-0.2500 (  1132 PWs)   bands (ev):

   -92.7769 -51.2191 -51.1872 -51.1496   5.5756   7.5927   7.6753   7.7646
     8.0700   8.0787   8.9307   9.3051   9.5006   9.9728  10.1183  10.1805
    10.8192  10.8946  11.3214  11.4539  13.1217  16.8957  18.1736  20.0826

          k = 0.4167-0.4167 0.5833 (  1131 PWs)   bands (ev):

   -92.7767 -51.2311 -51.1829 -51.1296   6.1182   7.5613   7.6820   7.9220
     8.0450   8.2451   8.7036   9.4583   9.5279   9.8423   9.9172  10.0980
    10.8547  10.8965  11.4324  11.4366  12.0750  17.0119  17.2457  19.7951

          k = 0.2500-0.2500 0.4167 (  1128 PWs)   bands (ev):

   -92.7746 -51.2125 -51.1826 -51.0459   5.1900   7.5482   7.7284   7.7425
     7.9419   8.0780   8.9835   9.2931   9.4436  10.1130  10.2380  10.3388
    10.8444  10.8588  11.2936  11.4229  14.0482  17.4792  18.1198  19.9402

          k = 0.0833-0.0833 0.2500 (  1137 PWs)   bands (ev):

   -92.7757 -51.3011 -51.1489 -51.1206   4.2163   7.6097   7.7153   7.7385
     7.8221   7.8405   9.0149   9.2244   9.2305  10.4262  10.4444  10.6682
    10.7854  10.8541  11.2601  11.3593  17.6002  18.6475  19.5212  20.4306

          k =-0.0833 0.4167 0.0833 (  1127 PWs)   bands (ev):

   -92.7733 -51.1999 -51.1401 -51.0459   4.7489   7.4405   7.6772   7.8363
     7.8673   7.9875   8.8805   9.4503   9.4611  10.3098  10.4150  10.6031
    10.7933  10.8347  11.1169  11.4409  16.2259  17.0959  17.8404  19.6488

          k =-0.2500 0.5833-0.0833 (  1124 PWs)   bands (ev):

   -92.7734 -51.1531 -51.1148 -51.0905   5.6880   7.2585   7.6709   7.8397
     7.9104   8.2777   8.9005   9.5867   9.7301   9.9594  10.3406  10.3688
    10.7687  10.9237  11.1568  11.4754  13.9789  15.2973  16.4470  19.9589

          k = 0.5833-0.2500 0.7500 (  1131 PWs)   bands (ev):

   -92.7772 -51.2454 -51.1810 -51.1309   6.5256   7.2725   7.7362   7.7911
     7.9289   8.4367   9.1195   9.4536   9.6489   9.9065  10.0742  10.1846
    10.6758  11.0530  11.3865  11.5157  11.9410  14.7850  15.7180  20.0109

          k = 0.4167-0.0833 0.5833 (  1127 PWs)   bands (ev):

   -92.7753 -51.1750 -51.1668 -51.1081   6.0116   7.3568   7.7286   7.7852
     7.9420   8.2409   9.1102   9.4257   9.7366   9.8349  10.1981  10.2756
    10.7001  10.9679  11.1821  11.5285  13.2038  14.5920  16.8039  20.4537

          k = 0.2500 0.0833 0.4167 (  1125 PWs)   bands (ev):

   -92.7731 -51.2101 -51.1350 -51.0138   4.9812   7.4945   7.7219   7.7772
     7.8763   8.0325   8.9897   9.3329   9.4931  10.1939  10.3506  10.4576
    10.8091  10.8950  11.1796  11.4494  15.1194  16.4892  18.4016  20.3111

          k =-0.0833 0.7500 0.0833 (  1123 PWs)   bands (ev):

   -92.7732 -51.1232 -51.1135 -51.1068   6.4128   6.9847   7.4954   7.9406
     7.9465   8.6306   8.6376   9.7886   9.8462   9.9157  10.3653  10.5318
    10.7933  11.0928  11.1984  11.5129  13.5238  14.3533  14.5384  19.2385

          k = 0.7500-0.0833 0.9167 (  1130 PWs)   bands (ev):

   -92.7768 -51.2558 -51.1689 -51.1068   6.8834   7.2802   7.5025   7.7683
     7.9777   8.6882   8.9485   9.3375   9.8841  10.0348  10.2738  10.4289
    10.5856  11.3374  11.5620  11.8500  12.1942  13.0556  13.9182  19.7213

          k = 0.5833 0.0833 0.7500 (  1130 PWs)   bands (ev):

   -92.7770 -51.2316 -51.1851 -51.1227   6.7489   7.2912   7.6756   7.7529
     7.9101   8.5822   9.1706   9.3145   9.8421   9.9784  10.1511  10.2640
    10.5526  11.0931  11.4232  11.5995  12.1566  13.3489  15.2179  20.0254

          k = 0.4167 0.2500 0.5833 (  1131 PWs)   bands (ev):

   -92.7769 -51.2461 -51.1747 -51.1256   6.0661   7.4337   7.7207   7.8168
     7.9839   8.2534   8.9995   9.3918   9.6252   9.8266  10.0511  10.1622
    10.7892  10.9365  11.3135  11.4681  12.4286  15.9786  16.9508  19.9784

          k =-0.0833-0.9167 0.0833 (  1130 PWs)   bands (ev):

   -92.7768 -51.2685 -51.1629 -51.1038   6.8295   7.2629   7.4850   7.8927
     7.9631   8.3698   9.0163   9.4603   9.8717   9.9207  10.3407  10.5170
    10.7548  11.4238  11.5113  11.7053  12.4255  13.3393  13.7477  19.1994

          k =-0.2500-0.7500-0.0833 (  1127 PWs)   bands (ev):

   -92.7750 -51.1756 -51.1461 -51.1212   6.5024   7.0494   7.5743   7.8524
     7.9577   8.5927   8.8137   9.6677   9.8262   9.8907  10.2946  10.4117
    10.6622  11.0913  11.2896  11.5444  12.9561  14.1532  14.8127  19.7870

          k =-0.0833-0.5833 0.0833 (  1122 PWs)   bands (ev):

   -92.7722 -51.1636 -51.0976 -51.0371   5.5068   7.1998   7.5936   7.9003
     7.9173   8.2696   8.7733   9.7008   9.7246  10.1259  10.3822  10.5403
    10.8241  10.8655  11.0481  11.4473  14.8606  15.7153  15.9250  19.3601

          k =-0.2500 0.2500 0.2500 (  1122 PWs)   bands (ev):

   -92.7716 -51.1412 -51.1412 -50.9964   4.7227   7.6906   7.6906   7.7015
     7.9290   7.9290   9.0706   9.2602   9.2602  10.3107  10.3107  10.5026
    10.8550  10.8550  11.3786  11.3786  15.1443  18.7768  18.7768  20.2923

          k =-0.4167 0.4167 0.0833 (  1125 PWs)   bands (ev):

   -92.7739 -51.1783 -51.1108 -51.0958   5.4222   7.5176   7.7052   7.7512
     8.0050   8.0207   9.1556   9.2310   9.5852  10.0017  10.2650  10.3539
    10.7672  10.9201  11.1769  11.5038  14.0954  15.5231  18.3314  20.2085

          k = 0.4167-0.4167 0.9167 (  1129 PWs)   bands (ev):

   -92.7766 -51.2319 -51.1664 -51.1174   6.3979   7.3942   7.7279   7.7604
     7.9016   8.3489   9.2754   9.3086   9.7048   9.9489  10.0996  10.2239
    10.6629  10.9334  11.2693  11.5475  12.5849  13.9114  16.4898  19.6634

          k = 0.2500-0.2500 0.7500 (  1121 PWs)   bands (ev):

   -92.7732 -51.1776 -51.0876 -51.0589   6.5187   7.1500   7.6585   7.8389
     7.9119   8.5498   8.9394   9.5866   9.7614   9.9200  10.1922  10.3215
    10.7488  11.0308  11.4383  11.5149  12.2765  14.5790  15.3996  19.3954

          k =-0.2500 0.5833 0.2500 (  1125 PWs)   bands (ev):

   -92.7743 -51.1743 -51.1273 -51.0940   5.8305   7.3296   7.7408   7.7886
     7.9281   8.2918   8.9539   9.4911   9.6809   9.8879  10.1797  10.2647
    10.8450  10.8792  11.3302  11.4494  13.0691  16.3236  16.3783  19.5401

          k = 0.5833-0.2500 1.0833 (  1129 PWs)   bands (ev):

   -92.7763 -51.2154 -51.1666 -51.1247   6.6325   7.1700   7.6719   7.7784
     7.9663   8.5169   9.0728   9.5030   9.7487   9.9068  10.2078  10.2747
    10.5695  11.1307  11.3330  11.5917  12.4637  13.7631  15.0775  20.9253

          k = 0.4167-0.0833 0.9167 (  1133 PWs)   bands (ev):

   -92.7780 -51.2368 -51.1861 -51.1744   6.9793   7.1718   7.5977   7.7158
     8.0230   8.7726   9.0505   9.3006   9.8825   9.9887  10.2069  10.2581
    10.5057  11.2604  11.6199  11.8223  12.1168  12.9509  13.8834  21.0243

          k =-0.2500-1.0833 0.2500 (  1136 PWs)   bands (ev):

   -92.7796 -51.2940 -51.1977 -51.1932   6.8323   7.3237   7.5835   7.7685
     7.8614   8.7959   8.9043   9.3149   9.9188  10.0279  10.1560  10.3774
    10.5651  11.1782  11.5332  11.6405  11.9646  13.0430  14.8489  19.3473

          k =-0.4167 0.4167 0.4167 (  1143 PWs)   bands (ev):

   -92.7810 -51.2950 -51.2950 -51.2158   5.8343   7.6615   7.6615   7.8157
     8.1526   8.1526   8.6058   9.4179   9.4179   9.9326   9.9326  10.0742
    10.8316  10.8316  11.4149  11.4149  12.4312  17.7705  17.7705  20.0199

          k = 0.4167-0.4167 1.2500 (  1128 PWs)   bands (ev):

   -92.7759 -51.2578 -51.1513 -51.0747   6.3215   7.4256   7.7238   7.8410
     7.9483   8.3124   9.0693   9.4215   9.5667   9.9284   9.9600  10.1337
    10.7825  10.9697  11.3646  11.4888  12.0382  15.4252  16.7695  19.6793

     the Fermi energy is    11.5574 ev

!    total energy              =   -1387.93419548 Ry

     total all-electron energy =    -43177.433977 Ry
     estimated scf accuracy    <       0.00000027 Ry
     smearing contrib. (-TS)   =      -0.00483763 Ry
     internal energy E=F+TS    =   -1387.92935785 Ry

     The total energy is F=E-TS. E is the sum of the following terms:
     one-electron contribution =    -288.37832887 Ry
     hartree contribution      =     180.29127529 Ry
     xc contribution           =    -102.67074431 Ry
     ewald contribution        =    -311.79126866 Ry
     one-center paw contrib.   =    -865.38029131 Ry

     convergence has been achieved in  10 iterations

     Writing output data file ././cunipt.save/

     init_run     :      1.78s CPU      1.81s WALL (       1 calls)
     electrons    :     26.92s CPU     26.97s WALL (       1 calls)

     Called by init_run:
     wfcinit      :      0.78s CPU      0.78s WALL (       1 calls)
     potinit      :      0.38s CPU      0.40s WALL (       1 calls)
     hinit0       :      0.57s CPU      0.57s WALL (       1 calls)

     Called by electrons:
     c_bands      :     20.14s CPU     20.18s WALL (      10 calls)
     sum_band     :      2.86s CPU      2.87s WALL (      10 calls)
     v_of_rho     :      0.11s CPU      0.11s WALL (      11 calls)
     newd         :      0.36s CPU      0.38s WALL (      11 calls)
     PAW_pot      :      3.84s CPU      3.85s WALL (      11 calls)
     mix_rho      :      0.01s CPU      0.01s WALL (      10 calls)

     Called by c_bands:
     init_us_2    :      0.23s CPU      0.23s WALL (     588 calls)
     cegterg      :     19.38s CPU     19.42s WALL (     280 calls)

     Called by *egterg:
     cdiaghg      :      0.71s CPU      0.71s WALL (    1207 calls)
     h_psi        :     12.89s CPU     12.93s WALL (    1235 calls)
     s_psi        :      1.58s CPU      1.58s WALL (    1235 calls)
     g_psi        :      0.06s CPU      0.06s WALL (     927 calls)

     Called by h_psi:
     h_psi:calbec :      1.47s CPU      1.47s WALL (    1235 calls)
     vloc_psi     :      9.81s CPU      9.85s WALL (    1235 calls)
     add_vuspsi   :      1.57s CPU      1.57s WALL (    1235 calls)

     General routines
     calbec       :      1.99s CPU      1.99s WALL (    1515 calls)
     fft          :      0.07s CPU      0.07s WALL (     121 calls)
     ffts         :      0.01s CPU      0.01s WALL (      10 calls)
     fftw         :     10.53s CPU     10.57s WALL (   43154 calls)

     Parallel routines

     PWSCF        :     28.92s CPU     29.04s WALL


   This run was terminated on:  23: 1:26  13Sep2024            

=------------------------------------------------------------------------------=
   JOB DONE.
=------------------------------------------------------------------------------=
