
     Program PWSCF v.6.7MaX starts on 13Sep2024 at 23: 0: 7 

     This program is part of the open-source Quantum ESPRESSO suite
     for quantum simulation of materials; please cite
         "P. Giannozzi et al., J. Phys.:Condens. Matter 21 395502 (2009);
         "P. Giannozzi et al., J. Phys.:Condens. Matter 29 465901 (2017);
          URL http://www.quantum-espresso.org", 
     in publications or presentations arising from this work. More details at
     http://www.quantum-espresso.org/quote

     Parallel version (MPI), running on     1 processors

     MPI processes distributed on     1 nodes
     Waiting for input...
     Reading input from standard input

     Current dimensions of program PWSCF are:
     Max number of different atomic species (ntypx) = 10
     Max number of k-points (npk) =  40000
     Max angular momentum in pseudopotentials (lmaxx) =  3
     file Cu.upf: wavefunction(s)  4S 3D renormalized
     file Ni.upf: wavefunction(s)  3P 3D renormalized
     file Pt.upf: wavefunction(s)  6S 5D renormalized

     Subspace diagonalization in iterative solution of the eigenvalue problem:
     a serial algorithm will be used


     G-vector sticks info
     --------------------
     sticks:   dense  smooth     PW     G-vecs:    dense   smooth      PW
     Sum         421     421    139                 5577     5577    1067



     bravais-lattice index     =            2
     lattice parameter (alat)  =      10.8900  a.u.
     unit-cell volume          =     322.8670 (a.u.)^3
     number of atoms/cell      =            3
     number of atomic types    =            3
     number of electrons       =        39.00
     number of Kohn-Sham states=           24
     kinetic-energy cutoff     =      25.0000  Ry
     charge density cutoff     =     100.0000  Ry
     scf convergence threshold =      1.0E-06
     mixing beta               =       0.6000
     number of iterations used =            8  plain     mixing
     Exchange-correlation= SLA  PW   PBX  PBC
                           (   1   4   3   4   0   0   0)

     celldm(1)=  10.890000  celldm(2)=   0.000000  celldm(3)=   0.000000
     celldm(4)=   0.000000  celldm(5)=   0.000000  celldm(6)=   0.000000

     crystal axes: (cart. coord. in units of alat)
               a(1) = (  -0.500000   0.000000   0.500000 )  
               a(2) = (   0.000000   0.500000   0.500000 )  
               a(3) = (  -0.500000   0.500000   0.000000 )  

     reciprocal axes: (cart. coord. in units 2 pi/alat)
               b(1) = ( -1.000000 -1.000000  1.000000 )  
               b(2) = (  1.000000  1.000000  1.000000 )  
               b(3) = ( -1.000000  1.000000 -1.000000 )  


     PseudoPot. # 1 for Cu read from file:
     ././Cu.upf
     MD5 check sum: cfffd1f38ee05704b3e17f46f1730a6f
     Pseudo is Projector augmented-wave + core cor, Zval = 11.0
     Generated using &quot;atomic&quot; code by A. Dal Corso  v.6.3
     Shape of augmentation charge: PSQ
     Using radial grid of 1199 points,  6 beta functions with: 
                l(1) =   0
                l(2) =   0
                l(3) =   1
                l(4) =   1
                l(5) =   2
                l(6) =   2
     Q(r) pseudized with 0 coefficients 


     PseudoPot. # 2 for Ni read from file:
     ././Ni.upf
     MD5 check sum: 6e86b733589c3ad8389697b807d86aa7
     Pseudo is Projector augmented-wave + core cor, Zval = 18.0
     Generated using &quot;atomic&quot; code by A. Dal Corso  v.6.3
     Shape of augmentation charge: PSQ
     Using radial grid of 1195 points,  6 beta functions with: 
                l(1) =   0
                l(2) =   0
                l(3) =   1
                l(4) =   1
                l(5) =   2
                l(6) =   2
     Q(r) pseudized with 0 coefficients 


     PseudoPot. # 3 for Pt read from file:
     ././Pt.upf
     MD5 check sum: c5224e9cd7a5e36e81f2def9f50bb494
     Pseudo is Projector augmented-wave + core cor, Zval = 10.0
     Generated using &quot;atomic&quot; code by A. Dal Corso  v.6.3
     Shape of augmentation charge: PSQ
     Using radial grid of 1277 points,  6 beta functions with: 
                l(1) =   0
                l(2) =   0
                l(3) =   1
                l(4) =   1
                l(5) =   2
                l(6) =   2
     Q(r) pseudized with 0 coefficients 


     atomic species   valence    mass     pseudopotential
        Cu            11.00    63.54600     Cu( 1.00)
        Ni            18.00    58.69300     Ni( 1.00)
        Pt            10.00   195.08000     Pt( 1.00)

     24 Sym. Ops. (no inversion) found



   Cartesian axes

     site n.     atom                  positions (alat units)
         1           Cu  tau(   1) = (   0.0000000   0.0000000   0.0000000  )
         2           Ni  tau(   2) = (   0.5000000   0.5000000   0.5000000  )
         3           Pt  tau(   3) = (   0.2500000   0.2500000   0.2500000  )

     number of k points=    28  Gaussian smearing, width (Ry)=  0.0100
                       cart. coord. in units 2pi/alat
        k(    1) = (  -0.0833333   0.0833333   0.0833333), wk =   0.0185185
        k(    2) = (  -0.2500000   0.2500000  -0.0833333), wk =   0.0555556
        k(    3) = (  -0.4166667   0.4166667  -0.2500000), wk =   0.0555556
        k(    4) = (   0.4166667  -0.4166667   0.5833333), wk =   0.0555556
        k(    5) = (   0.2500000  -0.2500000   0.4166667), wk =   0.0555556
        k(    6) = (   0.0833333  -0.0833333   0.2500000), wk =   0.0555556
        k(    7) = (  -0.0833333   0.4166667   0.0833333), wk =   0.0555556
        k(    8) = (  -0.2500000   0.5833333  -0.0833333), wk =   0.1111111
        k(    9) = (   0.5833333  -0.2500000   0.7500000), wk =   0.1111111
        k(   10) = (   0.4166667  -0.0833333   0.5833333), wk =   0.1111111
        k(   11) = (   0.2500000   0.0833333   0.4166667), wk =   0.1111111
        k(   12) = (  -0.0833333   0.7500000   0.0833333), wk =   0.0555556
        k(   13) = (   0.7500000  -0.0833333   0.9166667), wk =   0.1111111
        k(   14) = (   0.5833333   0.0833333   0.7500000), wk =   0.1111111
        k(   15) = (   0.4166667   0.2500000   0.5833333), wk =   0.1111111
        k(   16) = (  -0.0833333  -0.9166667   0.0833333), wk =   0.0555556
        k(   17) = (  -0.2500000  -0.7500000  -0.0833333), wk =   0.1111111
        k(   18) = (  -0.0833333  -0.5833333   0.0833333), wk =   0.0555556
        k(   19) = (  -0.2500000   0.2500000   0.2500000), wk =   0.0185185
        k(   20) = (  -0.4166667   0.4166667   0.0833333), wk =   0.0555556
        k(   21) = (   0.4166667  -0.4166667   0.9166667), wk =   0.0555556
        k(   22) = (   0.2500000  -0.2500000   0.7500000), wk =   0.0555556
        k(   23) = (  -0.2500000   0.5833333   0.2500000), wk =   0.0555556
        k(   24) = (   0.5833333  -0.2500000   1.0833333), wk =   0.1111111
        k(   25) = (   0.4166667  -0.0833333   0.9166667), wk =   0.1111111
        k(   26) = (  -0.2500000  -1.0833333   0.2500000), wk =   0.0555556
        k(   27) = (  -0.4166667   0.4166667   0.4166667), wk =   0.0185185
        k(   28) = (   0.4166667  -0.4166667   1.2500000), wk =   0.0555556

     Dense  grid:     5577 G-vectors     FFT dimensions: (  25,  25,  25)

     Estimated max dynamical RAM per process >      29.86 MB

     Check: negative core charge=   -0.000103

     Initial potential from superposition of free atoms

     starting charge   38.99935, renormalised to   39.00000

     negative rho (up, down):  6.639E-03 0.000E+00
     Starting wfcs are   28 randomized atomic wfcs
     Checking if some PAW data can be deallocated... 

     total cpu time spent up to now is        1.3 secs

     Self-consistent Calculation

     iteration #  1     ecut=    25.00 Ry     beta= 0.60
     Davidson diagonalization with overlap
     ethr =  1.00E-02,  avg # of iterations =  4.2

     total cpu time spent up to now is        2.8 secs

     total energy              =   -1365.00475100 Ry
     estimated scf accuracy    <      19.10490423 Ry

     iteration #  2     ecut=    25.00 Ry     beta= 0.60
     Davidson diagonalization with overlap
     ethr =  1.00E-02,  avg # of iterations =  3.0

     total cpu time spent up to now is        4.4 secs

     total energy              =   -1370.66782793 Ry
     estimated scf accuracy    <      66.68731431 Ry

     iteration #  3     ecut=    25.00 Ry     beta= 0.60
     Davidson diagonalization with overlap
     ethr =  1.00E-02,  avg # of iterations =  3.4

     negative rho (up, down):  2.639E-04 0.000E+00

     total cpu time spent up to now is        5.8 secs

     total energy              =   -1377.42601045 Ry
     estimated scf accuracy    <      17.57839406 Ry

     iteration #  4     ecut=    25.00 Ry     beta= 0.60
     Davidson diagonalization with overlap
     ethr =  1.00E-02,  avg # of iterations =  2.0

     negative rho (up, down):  9.194E-04 0.000E+00

     total cpu time spent up to now is        7.1 secs

     total energy              =   -1377.69002227 Ry
     estimated scf accuracy    <       4.86055296 Ry

     iteration #  5     ecut=    25.00 Ry     beta= 0.60
     Davidson diagonalization with overlap
     ethr =  1.00E-02,  avg # of iterations =  1.0

     negative rho (up, down):  6.004E-03 0.000E+00

     total cpu time spent up to now is        8.2 secs

     total energy              =   -1376.20344168 Ry
     estimated scf accuracy    <       2.68701110 Ry

     iteration #  6     ecut=    25.00 Ry     beta= 0.60
     Davidson diagonalization with overlap
     ethr =  6.89E-03,  avg # of iterations =  3.3

     negative rho (up, down):  3.502E-04 0.000E+00

     total cpu time spent up to now is        9.7 secs

     total energy              =   -1374.71978167 Ry
     estimated scf accuracy    <      23.91132040 Ry

     iteration #  7     ecut=    25.00 Ry     beta= 0.60
     Davidson diagonalization with overlap
     ethr =  6.89E-03,  avg # of iterations =  2.2

     negative rho (up, down):  1.111E-03 0.000E+00

     total cpu time spent up to now is       11.2 secs

     total energy              =   -1377.26093693 Ry
     estimated scf accuracy    <       1.06673560 Ry

     iteration #  8     ecut=    25.00 Ry     beta= 0.60
     Davidson diagonalization with overlap
     ethr =  2.74E-03,  avg # of iterations =  1.1

     negative rho (up, down):  1.317E-03 0.000E+00

     total cpu time spent up to now is       12.4 secs

     total energy              =   -1377.42048854 Ry
     estimated scf accuracy    <       0.49496602 Ry

     iteration #  9     ecut=    25.00 Ry     beta= 0.60
     Davidson diagonalization with overlap
     ethr =  1.27E-03,  avg # of iterations =  1.0

     negative rho (up, down):  2.126E-03 0.000E+00

     total cpu time spent up to now is       13.5 secs

     total energy              =   -1377.44257411 Ry
     estimated scf accuracy    <       0.02937629 Ry

     iteration # 10     ecut=    25.00 Ry     beta= 0.60
     Davidson diagonalization with overlap
     ethr =  7.53E-05,  avg # of iterations =  3.4

     negative rho (up, down):  2.478E-03 0.000E+00

     total cpu time spent up to now is       14.9 secs

     total energy              =   -1377.43932490 Ry
     estimated scf accuracy    <       0.03354464 Ry

     iteration # 11     ecut=    25.00 Ry     beta= 0.60
     Davidson diagonalization with overlap
     ethr =  7.53E-05,  avg # of iterations =  1.2

     negative rho (up, down):  2.390E-03 0.000E+00

     total cpu time spent up to now is       16.1 secs

     total energy              =   -1377.44277762 Ry
     estimated scf accuracy    <       0.00023880 Ry

     iteration # 12     ecut=    25.00 Ry     beta= 0.60
     Davidson diagonalization with overlap
     ethr =  6.12E-07,  avg # of iterations =  7.5

     negative rho (up, down):  2.373E-03 0.000E+00

     total cpu time spent up to now is       18.3 secs

     total energy              =   -1377.44310972 Ry
     estimated scf accuracy    <       0.00055378 Ry

     iteration # 13     ecut=    25.00 Ry     beta= 0.60
     Davidson diagonalization with overlap
     ethr =  6.12E-07,  avg # of iterations =  2.0

     negative rho (up, down):  2.282E-03 0.000E+00

     total cpu time spent up to now is       19.7 secs

     total energy              =   -1377.44306608 Ry
     estimated scf accuracy    <       0.00052551 Ry

     iteration # 14     ecut=    25.00 Ry     beta= 0.60
     Davidson diagonalization with overlap
     ethr =  6.12E-07,  avg # of iterations =  2.0

     negative rho (up, down):  2.278E-03 0.000E+00

     total cpu time spent up to now is       20.9 secs

     total energy              =   -1377.44311896 Ry
     estimated scf accuracy    <       0.00016795 Ry

     iteration # 15     ecut=    25.00 Ry     beta= 0.60
     Davidson diagonalization with overlap
     ethr =  4.31E-07,  avg # of iterations =  1.0

     negative rho (up, down):  2.305E-03 0.000E+00

     total cpu time spent up to now is       22.0 secs

     total energy              =   -1377.44311979 Ry
     estimated scf accuracy    <       0.00003453 Ry

     iteration # 16     ecut=    25.00 Ry     beta= 0.60
     Davidson diagonalization with overlap
     ethr =  8.85E-08,  avg # of iterations =  1.0

     negative rho (up, down):  2.306E-03 0.000E+00

     total cpu time spent up to now is       23.1 secs

     total energy              =   -1377.44312161 Ry
     estimated scf accuracy    <       0.00000279 Ry

     iteration # 17     ecut=    25.00 Ry     beta= 0.60
     Davidson diagonalization with overlap
     ethr =  7.14E-09,  avg # of iterations =  2.1

     negative rho (up, down):  2.304E-03 0.000E+00

     total cpu time spent up to now is       24.4 secs

     End of self-consistent calculation

          k =-0.0833 0.0833 0.0833 (   679 PWs)   bands (ev):

  -106.2426 -52.6714 -52.1719 -52.1719   4.1497   7.9157   7.9157   8.1075
     8.1446   8.1446   9.5127   9.5319   9.5319  10.8409  10.8409  11.2183
    11.2183  11.2952  11.7197  11.7197  19.1771  20.5391  20.5391  20.6186

          k =-0.2500 0.2500-0.0833 (   673 PWs)   bands (ev):

  -106.2197 -52.3205 -52.0214 -51.8134   4.6907   7.9841   7.9926   8.0852
     8.2764   8.3114   9.4364   9.4986   9.6944  10.7005  10.8533  11.2186
    11.3775  11.5028  11.8550  12.2872  16.5751  17.9354  20.1645  20.7884

          k =-0.4167 0.4167-0.2500 (   675 PWs)   bands (ev):

  -106.2264 -52.6652 -52.0929 -51.6987   5.8179   7.8856   8.0102   8.0844
     8.4151   8.5089   9.1781   9.7031   9.8742  10.2148  10.5848  10.8472
    11.2274  11.4076  11.8504  12.3491  13.2716  17.1107  18.4544  20.0443

          k = 0.4167-0.4167 0.5833 (   685 PWs)   bands (ev):

  -106.2796 -53.4565 -52.3201 -52.3085   6.3867   7.8583   7.9613   8.1296
     8.3564   8.5696   8.9149   9.7839   9.8015   9.9612   9.9856  10.1960
    11.1225  11.2724  11.6356  11.6549  11.9428  17.1909  17.4466  19.7397

          k = 0.2500-0.2500 0.4167 (   675 PWs)   bands (ev):

  -106.2240 -52.6551 -52.0467 -51.7267   5.4173   7.8496   8.0521   8.0573
     8.3600   8.4331   9.2380   9.6881   9.8377  10.4690  10.7030  10.8672
    11.2993  11.3619  11.8573  12.2878  14.0482  17.7370  18.4097  19.9290

          k = 0.0833-0.0833 0.2500 (   679 PWs)   bands (ev):

  -106.2503 -52.6472 -52.5931 -51.8773   4.4244   7.9203   7.9838   8.1163
     8.1762   8.1914   9.3485   9.5928   9.6258  10.7521  10.8002  10.9131
    11.1858  11.2373  11.4433  12.1209  17.7864  18.8217  19.7195  20.5822

          k =-0.0833 0.4167 0.0833 (   676 PWs)   bands (ev):

  -106.2375 -52.5417 -52.3030 -51.8260   4.9622   7.7512   8.1190   8.1673
     8.2352   8.3149   9.2087   9.7620   9.7996  10.6165  10.8744  10.9531
    11.2130  11.2657  11.5045  12.2767  16.4570  17.3202  18.0733  19.7828

          k =-0.2500 0.5833-0.0833 (   681 PWs)   bands (ev):

  -106.2652 -52.7382 -52.4991 -52.2950   5.9153   7.5406   8.0193   8.1165
     8.2769   8.5375   9.2279   9.8389   9.9902  10.1943  10.4977  10.9292
    10.9671  11.1468  11.2422  12.0367  14.1186  15.4477  16.6069  20.0250

          k = 0.5833-0.2500 0.7500 (   683 PWs)   bands (ev):

  -106.2795 -53.3469 -52.4933 -52.0838   6.8086   7.5516   8.0256   8.0791
     8.2107   8.7729   9.4021   9.7260   9.9202  10.0190  10.2866  10.3720
    11.0245  11.2512  11.5304  11.8180  11.9843  15.0108  15.8813  20.0258

          k = 0.4167-0.0833 0.5833 (   683 PWs)   bands (ev):

  -106.2768 -52.9937 -52.5377 -52.3648   6.2520   7.6392   8.0206   8.0657
     8.2408   8.5707   9.3683   9.6769   9.9602  10.1598  10.3993  10.6842
    10.9685  11.0080  11.4738  11.6766  13.2149  14.8280  16.9196  20.4093

          k = 0.2500 0.0833 0.4167 (   677 PWs)   bands (ev):

  -106.2380 -52.3719 -52.3391 -52.0717   5.1993   7.8007   8.0476   8.0985
     8.3146   8.3706   9.2872   9.6036   9.8143  10.4968  10.7606  11.0292
    11.1658  11.2553  11.5342  12.2169  15.2635  16.7151  18.6121  20.3156

          k =-0.0833 0.7500 0.0833 (   685 PWs)   bands (ev):

  -106.2914 -52.9477 -52.7514 -52.5322   6.6455   7.2866   7.8395   8.1880
     8.2010   8.8664   8.9696   9.8818   9.9804  10.1294  10.6861  10.8029
    10.8870  11.0590  11.1435  11.8333  13.6062  14.4887  14.7182  19.2771

          k = 0.7500-0.0833 0.9167 (   687 PWs)   bands (ev):

  -106.3021 -53.4114 -52.8267 -52.3688   7.1668   7.5196   7.7986   8.0512
     8.2189   8.9351   9.1604   9.5086   9.7642  10.1788  10.4896  10.7385
    10.8327  11.1569  11.4790  12.0517  12.4210  13.2424  14.0940  19.8035

          k = 0.5833 0.0833 0.7500 (   691 PWs)   bands (ev):

  -106.3235 -53.5303 -53.1573 -52.5604   7.0081   7.5307   7.9261   7.9839
     8.1507   8.8758   9.4271   9.4787   9.8504  10.0255  10.1235  10.2765
    10.7914  10.8880  11.2770  11.4252  12.2410  13.4763  15.3610  20.0386

          k = 0.4167 0.2500 0.5833 (   683 PWs)   bands (ev):

  -106.2734 -53.1838 -52.4636 -52.1866   6.3204   7.7145   8.0347   8.0954
     8.2953   8.6018   9.2478   9.7020   9.9073  10.0215  10.2384  10.3887
    10.9823  11.2559  11.5828  11.8105  12.3894  16.1511  17.1226  19.9418

          k =-0.0833-0.9167 0.0833 (   685 PWs)   bands (ev):

  -106.2892 -53.3987 -52.5063 -52.3548   7.1054   7.4842   7.8486   8.1477
     8.1856   8.6504   9.2076   9.7537   9.8864  10.2092  10.5754  10.8947
    10.9590  11.2368  11.3799  11.8601  12.8436  13.5523  13.9597  19.2461

          k =-0.2500-0.7500-0.0833 (   678 PWs)   bands (ev):

  -106.2546 -52.6874 -52.3839 -52.0598   6.7597   7.3648   7.9379   8.1688
     8.3020   8.8748   9.1355   9.8961  10.0911  10.1721  10.5664  10.9639
    11.0916  11.3875  11.4358  12.2481  13.1812  14.3667  14.9762  19.9022

          k =-0.0833-0.5833 0.0833 (   680 PWs)   bands (ev):

  -106.2597 -52.5843 -52.4774 -52.2683   5.7275   7.4848   7.9784   8.2342
     8.2521   8.5607   9.1177   9.9263  10.0104  10.3986  10.6278  10.8634
    10.9921  11.1941  11.3657  11.9361  15.0214  15.9221  16.1032  19.4477

          k =-0.2500 0.2500 0.2500 (   670 PWs)   bands (ev):

  -106.2007 -51.9208 -51.9208 -51.7942   4.9411   8.0157   8.0157   8.0610
     8.3437   8.3437   9.3617   9.6288   9.6288  10.7193  10.7193  11.4543
    11.4543  11.8463  12.1034  12.1034  15.5339  19.0196  19.0196  20.3016

          k =-0.4167 0.4167 0.0833 (   674 PWs)   bands (ev):

  -106.2241 -52.3143 -52.1175 -51.8905   5.6511   7.8111   8.0183   8.0975
     8.3907   8.4650   9.4082   9.5111   9.9884  10.3248  10.7178  10.9999
    11.1858  11.4374  11.9451  12.1948  14.3264  15.7487  18.5311  20.2150

          k = 0.4167-0.4167 0.9167 (   684 PWs)   bands (ev):

  -106.2880 -53.0858 -52.6669 -52.3888   6.6563   7.6758   8.0298   8.0661
     8.1888   8.6802   9.5164   9.5215   9.8700  10.1519  10.3693  10.5171
    10.9388  10.9440  11.4495  11.5426  12.7209  14.1721  16.6353  19.7060

          k = 0.2500-0.2500 0.7500 (   684 PWs)   bands (ev):

  -106.2855 -53.1093 -52.6253 -52.3534   6.7759   7.4349   7.9903   8.0963
     8.2082   8.7872   9.2539   9.8128  10.0475  10.0939  10.1790  10.5659
    10.9585  11.0928  11.3396  11.9943  12.3425  14.8112  15.5401  19.4431

          k =-0.2500 0.5833 0.2500 (   680 PWs)   bands (ev):

  -106.2581 -52.8276 -52.3625 -52.1550   6.0708   7.6146   8.0767   8.0904
     8.2911   8.6034   9.2477   9.8036   9.9840  10.1599  10.3408  10.7935
    11.0840  11.1964  11.6106  11.8981  13.1620  16.5099  16.5484  19.5708

          k = 0.5833-0.2500 1.0833 (   683 PWs)   bands (ev):

  -106.2812 -52.9413 -52.5554 -52.4454   6.9053   7.4752   7.9709   8.0747
     8.2834   8.8244   9.3357   9.7359   9.9531  10.1162  10.4371  10.5912
    10.8422  11.2841  11.3445  11.8788  12.6280  13.9759  15.2111  20.9021

          k = 0.4167-0.0833 0.9167 (   689 PWs)   bands (ev):

  -106.3139 -53.2760 -53.0393 -52.6080   7.2611   7.4512   7.8600   7.9719
     8.3036   9.0456   9.2970   9.5141   9.6696  10.1712  10.2313  10.4516
    10.7279  11.1362  11.5336  11.7882  12.3160  13.1014  14.0228  21.0691

          k =-0.2500-1.0833 0.2500 (   687 PWs)   bands (ev):

  -106.3022 -53.4706 -52.9410 -52.2365   7.0818   7.5655   7.9028   8.0614
     8.1294   9.0977   9.1741   9.4605   9.7533  10.2707  10.3627  10.5245
    10.8955  11.1188  11.4914  11.6918  12.1797  13.2842  15.0553  19.4354

          k =-0.4167 0.4167 0.4167 (   679 PWs)   bands (ev):

  -106.2461 -52.7141 -52.2037 -52.2037   6.0875   8.0096   8.0096   8.0898
     8.5122   8.5122   8.8258   9.8385   9.8385  10.2340  10.2340  10.3964
    11.4451  11.4451  11.7970  11.7970  12.4871  18.0194  18.0194  19.9434

          k = 0.4167-0.4167 1.2500 (   688 PWs)   bands (ev):

  -106.3032 -53.5241 -52.8424 -52.3253   6.5893   7.6688   8.0087   8.0715
     8.2153   8.6257   9.2803   9.6581   9.7771   9.8946  10.0984  10.2167
    10.9687  11.0183  11.4654  11.4739  11.9711  15.5641  16.8905  19.6640

     the Fermi energy is    11.9217 ev

!    total energy              =   -1377.44312211 Ry

     total all-electron energy =    -43166.942903 Ry
     estimated scf accuracy    <       0.00000009 Ry
     smearing contrib. (-TS)   =      -0.00290993 Ry
     internal energy E=F+TS    =   -1377.44021218 Ry

     The total energy is F=E-TS. E is the sum of the following terms:
     one-electron contribution =    -267.25249479 Ry
     hartree contribution      =     168.15812028 Ry
     xc contribution           =    -101.51103670 Ry
     ewald contribution        =    -311.79126864 Ry
     one-center paw contrib.   =    -865.04353233 Ry

     convergence has been achieved in  17 iterations

     Writing output data file ././cunipt.save/

     init_run     :      1.11s CPU      1.13s WALL (       1 calls)
     electrons    :     23.16s CPU     23.10s WALL (       1 calls)

     Called by init_run:
     wfcinit      :      0.33s CPU      0.33s WALL (       1 calls)
     potinit      :      0.33s CPU      0.34s WALL (       1 calls)
     hinit0       :      0.43s CPU      0.43s WALL (       1 calls)

     Called by electrons:
     c_bands      :     14.89s CPU     14.86s WALL (      17 calls)
     sum_band     :      1.97s CPU      1.97s WALL (      17 calls)
     v_of_rho     :      0.06s CPU      0.06s WALL (      18 calls)
     newd         :      0.34s CPU      0.34s WALL (      18 calls)
     PAW_pot      :      6.23s CPU      6.21s WALL (      18 calls)
     mix_rho      :      0.01s CPU      0.01s WALL (      17 calls)

     Called by c_bands:
     init_us_2    :      0.22s CPU      0.22s WALL (     980 calls)
     cegterg      :     14.14s CPU     14.11s WALL (     476 calls)

     Called by *egterg:
     cdiaghg      :      0.94s CPU      0.94s WALL (    1638 calls)
     h_psi        :      7.57s CPU      7.56s WALL (    1666 calls)
     s_psi        :      1.49s CPU      1.48s WALL (    1666 calls)
     g_psi        :      0.06s CPU      0.06s WALL (    1162 calls)

     Called by h_psi:
     h_psi:calbec :      1.33s CPU      1.33s WALL (    1666 calls)
     vloc_psi     :      4.70s CPU      4.70s WALL (    1666 calls)
     add_vuspsi   :      1.50s CPU      1.50s WALL (    1666 calls)

     General routines
     calbec       :      1.85s CPU      1.85s WALL (    2142 calls)
     fft          :      0.01s CPU      0.01s WALL (     198 calls)
     ffts         :      0.00s CPU      0.00s WALL (      17 calls)
     fftw         :      4.67s CPU      4.67s WALL (   69690 calls)

     Parallel routines

     PWSCF        :     24.50s CPU     24.47s WALL


   This run was terminated on:  23: 0:31  13Sep2024            

=------------------------------------------------------------------------------=
   JOB DONE.
=------------------------------------------------------------------------------=
