
     Program PWSCF v.6.7MaX starts on 13Sep2024 at 23:26:44 

     This program is part of the open-source Quantum ESPRESSO suite
     for quantum simulation of materials; please cite
         "P. Giannozzi et al., J. Phys.:Condens. Matter 21 395502 (2009);
         "P. Giannozzi et al., J. Phys.:Condens. Matter 29 465901 (2017);
          URL http://www.quantum-espresso.org", 
     in publications or presentations arising from this work. More details at
     http://www.quantum-espresso.org/quote

     Parallel version (MPI), running on     1 processors

     MPI processes distributed on     1 nodes
     Waiting for input...
     Reading input from standard input

     Current dimensions of program PWSCF are:
     Max number of different atomic species (ntypx) = 10
     Max number of k-points (npk) =  40000
     Max angular momentum in pseudopotentials (lmaxx) =  3
     file Cu.upf: wavefunction(s)  4S 3D renormalized
     file Ni.upf: wavefunction(s)  3P 3D renormalized
     file Pt.upf: wavefunction(s)  6S 5D renormalized

     gamma-point specific algorithms are used

     Subspace diagonalization in iterative solution of the eigenvalue problem:
     a serial algorithm will be used


     G-vector sticks info
     --------------------
     sticks:   dense  smooth     PW     G-vecs:    dense   smooth      PW
     Sum         967     967    253                20179    20179    2637



     bravais-lattice index     =            2
     lattice parameter (alat)  =      10.8900  a.u.
     unit-cell volume          =     322.8670 (a.u.)^3
     number of atoms/cell      =            3
     number of atomic types    =            3
     number of electrons       =        39.00
     number of Kohn-Sham states=           28
     kinetic-energy cutoff     =      60.0000  Ry
     charge density cutoff     =     240.0000  Ry
     scf convergence threshold =      1.0E-07
     mixing beta               =       0.7000
     number of iterations used =            8  plain     mixing
     energy convergence thresh.=      1.0E-04
     force convergence thresh. =      1.0E-03
     Exchange-correlation= SLA  PW   PBX  PBC
                           (   1   4   3   4   0   0   0)
     nstep                     =           50

     Assuming isolated system, Martyna-Tuckerman method


     celldm(1)=  10.890000  celldm(2)=   0.000000  celldm(3)=   0.000000
     celldm(4)=   0.000000  celldm(5)=   0.000000  celldm(6)=   0.000000

     crystal axes: (cart. coord. in units of alat)
               a(1) = (  -0.500000   0.000000   0.500000 )  
               a(2) = (   0.000000   0.500000   0.500000 )  
               a(3) = (  -0.500000   0.500000   0.000000 )  

     reciprocal axes: (cart. coord. in units 2 pi/alat)
               b(1) = ( -1.000000 -1.000000  1.000000 )  
               b(2) = (  1.000000  1.000000  1.000000 )  
               b(3) = ( -1.000000  1.000000 -1.000000 )  


     PseudoPot. # 1 for Cu read from file:
     ./Cu.upf
     MD5 check sum: cfffd1f38ee05704b3e17f46f1730a6f
     Pseudo is Projector augmented-wave + core cor, Zval = 11.0
     Generated using &quot;atomic&quot; code by A. Dal Corso  v.6.3
     Shape of augmentation charge: PSQ
     Using radial grid of 1199 points,  6 beta functions with: 
                l(1) =   0
                l(2) =   0
                l(3) =   1
                l(4) =   1
                l(5) =   2
                l(6) =   2
     Q(r) pseudized with 0 coefficients 


     PseudoPot. # 2 for Ni read from file:
     ./Ni.upf
     MD5 check sum: 6e86b733589c3ad8389697b807d86aa7
     Pseudo is Projector augmented-wave + core cor, Zval = 18.0
     Generated using &quot;atomic&quot; code by A. Dal Corso  v.6.3
     Shape of augmentation charge: PSQ
     Using radial grid of 1195 points,  6 beta functions with: 
                l(1) =   0
                l(2) =   0
                l(3) =   1
                l(4) =   1
                l(5) =   2
                l(6) =   2
     Q(r) pseudized with 0 coefficients 


     PseudoPot. # 3 for Pt read from file:
     ./Pt.upf
     MD5 check sum: c5224e9cd7a5e36e81f2def9f50bb494
     Pseudo is Projector augmented-wave + core cor, Zval = 10.0
     Generated using &quot;atomic&quot; code by A. Dal Corso  v.6.3
     Shape of augmentation charge: PSQ
     Using radial grid of 1277 points,  6 beta functions with: 
                l(1) =   0
                l(2) =   0
                l(3) =   1
                l(4) =   1
                l(5) =   2
                l(6) =   2
     Q(r) pseudized with 0 coefficients 


     atomic species   valence    mass     pseudopotential
        Cu            11.00    63.54600     Cu( 1.00)
        Ni            18.00    58.69300     Ni( 1.00)
        Pt            10.00   195.08000     Pt( 1.00)

     24 Sym. Ops. (no inversion) found



   Cartesian axes

     site n.     atom                  positions (alat units)
         1           Cu  tau(   1) = (   0.0000000   0.0000000   0.0000000  )
         2           Ni  tau(   2) = (   0.5000000   0.5000000   0.5000000  )
         3           Pt  tau(   3) = (   0.2500000   0.2500000   0.2500000  )

     number of k points=     1  Gaussian smearing, width (Ry)=  0.0100
                       cart. coord. in units 2pi/alat
        k(    1) = (   0.0000000   0.0000000   0.0000000), wk =   2.0000000

     Dense  grid:    10090 G-vectors     FFT dimensions: (  40,  40,  40)

     Estimated max dynamical RAM per process >      43.40 MB

     Atomic positions and unit cell read from directory:
     ./cunipt.save/
     Message from routine qexsd_readschema :
     xml data file ./cunipt.save/data-file-schema.xml not found
     Nothing found: using input atomic positions and unit cell


     Check: negative core charge=   -0.000002
     Cannot read rho : file not found

     Initial potential from superposition of free atoms

     starting charge   38.99935, renormalised to   39.00000
     Message from routine qexsd_readschema :
     xml data file ./cunipt.save/data-file-schema.xml not found
     Cannot read wfcs: file not found
     Starting wfcs are   28 randomized atomic wfcs
     Checking if some PAW data can be deallocated... 

     total cpu time spent up to now is        1.4 secs

     Self-consistent Calculation

     iteration #  1     ecut=    60.00 Ry     beta= 0.70
     Davidson diagonalization with overlap
     ethr =  1.00E-05,  avg # of iterations = 40.0

     total cpu time spent up to now is        2.7 secs

     total energy              =   -1392.69129026 Ry
     estimated scf accuracy    <       6.00549781 Ry

     iteration #  2     ecut=    60.00 Ry     beta= 0.70
     Davidson diagonalization with overlap
     ethr =  1.00E-02,  avg # of iterations =  7.0

     total cpu time spent up to now is        3.2 secs

     total energy              =   -1389.88002369 Ry
     estimated scf accuracy    <      70.04000566 Ry

     iteration #  3     ecut=    60.00 Ry     beta= 0.70
     Davidson diagonalization with overlap
     ethr =  1.00E-02,  avg # of iterations =  7.0

     total cpu time spent up to now is        3.7 secs

     total energy              =   -1396.65876225 Ry
     estimated scf accuracy    <      10.99130870 Ry

     iteration #  4     ecut=    60.00 Ry     beta= 0.70
     Davidson diagonalization with overlap
     ethr =  1.00E-02,  avg # of iterations =  2.0

     total cpu time spent up to now is        4.2 secs

     total energy              =   -1397.41397758 Ry
     estimated scf accuracy    <       1.62570372 Ry

     iteration #  5     ecut=    60.00 Ry     beta= 0.70
     Davidson diagonalization with overlap
     ethr =  4.17E-03,  avg # of iterations =  2.0

     total cpu time spent up to now is        4.7 secs

     total energy              =   -1397.50530425 Ry
     estimated scf accuracy    <       0.62903070 Ry

     iteration #  6     ecut=    60.00 Ry     beta= 0.70
     Davidson diagonalization with overlap
     ethr =  1.61E-03,  avg # of iterations =  4.0

     total cpu time spent up to now is        5.2 secs

     total energy              =   -1397.54498754 Ry
     estimated scf accuracy    <       0.28693455 Ry

     iteration #  7     ecut=    60.00 Ry     beta= 0.70
     Davidson diagonalization with overlap
     ethr =  7.36E-04,  avg # of iterations =  5.0

     total cpu time spent up to now is        5.7 secs

     total energy              =   -1397.57767221 Ry
     estimated scf accuracy    <       0.18183295 Ry

     iteration #  8     ecut=    60.00 Ry     beta= 0.70
     Davidson diagonalization with overlap
     ethr =  4.66E-04,  avg # of iterations =  2.0

     total cpu time spent up to now is        6.2 secs

     total energy              =   -1397.60959184 Ry
     estimated scf accuracy    <       0.06556186 Ry

     iteration #  9     ecut=    60.00 Ry     beta= 0.70
     Davidson diagonalization with overlap
     ethr =  1.68E-04,  avg # of iterations =  2.0

     total cpu time spent up to now is        6.7 secs

     total energy              =   -1397.60961876 Ry
     estimated scf accuracy    <       0.05644725 Ry

     iteration # 10     ecut=    60.00 Ry     beta= 0.70
     Davidson diagonalization with overlap
     ethr =  1.45E-04,  avg # of iterations =  1.0

     total cpu time spent up to now is        7.2 secs

     total energy              =   -1397.60494514 Ry
     estimated scf accuracy    <       0.03828403 Ry

     iteration # 11     ecut=    60.00 Ry     beta= 0.70
     Davidson diagonalization with overlap
     ethr =  9.82E-05,  avg # of iterations =  1.0

     total cpu time spent up to now is        7.6 secs

     total energy              =   -1397.60680592 Ry
     estimated scf accuracy    <       0.00398894 Ry

     iteration # 12     ecut=    60.00 Ry     beta= 0.70
     Davidson diagonalization with overlap
     ethr =  1.02E-05,  avg # of iterations = 12.0

     total cpu time spent up to now is        8.2 secs

     total energy              =   -1397.60803215 Ry
     estimated scf accuracy    <       0.04045326 Ry

     iteration # 13     ecut=    60.00 Ry     beta= 0.70
     Davidson diagonalization with overlap
     ethr =  1.02E-05,  avg # of iterations =  2.0

     total cpu time spent up to now is        8.7 secs

     total energy              =   -1397.60862729 Ry
     estimated scf accuracy    <       0.00251189 Ry

     iteration # 14     ecut=    60.00 Ry     beta= 0.70
     Davidson diagonalization with overlap
     ethr =  6.44E-06,  avg # of iterations =  1.0

     total cpu time spent up to now is        9.2 secs

     total energy              =   -1397.60882947 Ry
     estimated scf accuracy    <       0.00242712 Ry

     iteration # 15     ecut=    60.00 Ry     beta= 0.70
     Davidson diagonalization with overlap
     ethr =  6.22E-06,  avg # of iterations =  1.0

     total cpu time spent up to now is        9.6 secs

     total energy              =   -1397.60892536 Ry
     estimated scf accuracy    <       0.00261699 Ry

     iteration # 16     ecut=    60.00 Ry     beta= 0.70
     Davidson diagonalization with overlap
     ethr =  6.22E-06,  avg # of iterations =  1.0

     total cpu time spent up to now is       10.1 secs

     total energy              =   -1397.60891413 Ry
     estimated scf accuracy    <       0.00184320 Ry

     iteration # 17     ecut=    60.00 Ry     beta= 0.70
     Davidson diagonalization with overlap
     ethr =  4.73E-06,  avg # of iterations =  1.0

     total cpu time spent up to now is       10.6 secs

     total energy              =   -1397.60888128 Ry
     estimated scf accuracy    <       0.00101012 Ry

     iteration # 18     ecut=    60.00 Ry     beta= 0.70
     Davidson diagonalization with overlap
     ethr =  2.59E-06,  avg # of iterations =  1.0

     total cpu time spent up to now is       11.1 secs

     total energy              =   -1397.60889783 Ry
     estimated scf accuracy    <       0.00023194 Ry

     iteration # 19     ecut=    60.00 Ry     beta= 0.70
     Davidson diagonalization with overlap
     ethr =  5.95E-07,  avg # of iterations =  2.0

     total cpu time spent up to now is       11.6 secs

     total energy              =   -1397.60890367 Ry
     estimated scf accuracy    <       0.00008613 Ry

     iteration # 20     ecut=    60.00 Ry     beta= 0.70
     Davidson diagonalization with overlap
     ethr =  2.21E-07,  avg # of iterations =  5.0

     total cpu time spent up to now is       12.1 secs

     total energy              =   -1397.60892046 Ry
     estimated scf accuracy    <       0.00002291 Ry

     iteration # 21     ecut=    60.00 Ry     beta= 0.70
     Davidson diagonalization with overlap
     ethr =  5.88E-08,  avg # of iterations =  5.0

     total cpu time spent up to now is       12.6 secs

     total energy              =   -1397.60892623 Ry
     estimated scf accuracy    <       0.00001054 Ry

     iteration # 22     ecut=    60.00 Ry     beta= 0.70
     Davidson diagonalization with overlap
     ethr =  2.70E-08,  avg # of iterations =  1.0

     total cpu time spent up to now is       13.1 secs

     total energy              =   -1397.60892658 Ry
     estimated scf accuracy    <       0.00000243 Ry

     iteration # 23     ecut=    60.00 Ry     beta= 0.70
     Davidson diagonalization with overlap
     ethr =  6.24E-09,  avg # of iterations =  4.0

     total cpu time spent up to now is       13.6 secs

     total energy              =   -1397.60892703 Ry
     estimated scf accuracy    <       0.00000040 Ry

     iteration # 24     ecut=    60.00 Ry     beta= 0.70
     Davidson diagonalization with overlap
     ethr =  1.03E-09,  avg # of iterations =  5.0

     total cpu time spent up to now is       14.1 secs

     total energy              =   -1397.60892713 Ry
     estimated scf accuracy    <       0.00000300 Ry

     iteration # 25     ecut=    60.00 Ry     beta= 0.70
     Davidson diagonalization with overlap
     ethr =  1.03E-09,  avg # of iterations =  4.0

     total cpu time spent up to now is       14.6 secs

     total energy              =   -1397.60892723 Ry
     estimated scf accuracy    <       0.00000041 Ry

     iteration # 26     ecut=    60.00 Ry     beta= 0.70
     Davidson diagonalization with overlap
     ethr =  1.03E-09,  avg # of iterations =  1.0

     total cpu time spent up to now is       15.1 secs

     total energy              =   -1397.60892725 Ry
     estimated scf accuracy    <       0.00000010 Ry

     iteration # 27     ecut=    60.00 Ry     beta= 0.70
     Davidson diagonalization with overlap
     ethr =  2.66E-10,  avg # of iterations =  4.0

     total cpu time spent up to now is       15.6 secs

     End of self-consistent calculation

          k = 0.0000 0.0000 0.0000 (  1319 PWs)   bands (ev):

   -89.5827 -50.0254 -50.0254 -50.0253   2.5203   6.4550   6.4551   6.4551
     7.4045   7.4045  10.0265  10.0265  10.0265  11.6273  11.6273  12.1682
    12.1682  12.1682  12.2675  12.2675  19.4507  20.1965  20.1966  20.1966
    20.5679  20.5679  20.5680  23.5713

     the Fermi energy is    12.3474 ev

!    total energy              =   -1397.60892723 Ry

     total all-electron energy =    -43187.108708 Ry
     estimated scf accuracy    <       0.00000006 Ry
     smearing contrib. (-TS)   =      -0.01097861 Ry
     internal energy E=F+TS    =   -1397.59794862 Ry

     The total energy is F=E-TS. E is the sum of the following terms:
     one-electron contribution =   -1369.75499601 Ry
     hartree contribution      =     721.12498351 Ry
     xc contribution           =    -101.63363707 Ry
     ewald contribution        =     218.08584229 Ry
     one-center paw contrib.   =    -865.42014133 Ry

     convergence has been achieved in  27 iterations

     Forces acting on atoms (cartesian axes, Ry/au):

     atom    1 type  1   force =     0.00000000    0.00000000    0.00000000
     atom    2 type  2   force =    -0.00000000    0.00000000    0.00000000
     atom    3 type  3   force =    -0.00000000   -0.00000000    0.00000000

     Total force =     0.000000     Total SCF correction =     0.000419

     BFGS Geometry Optimization
     Energy error            =      0.0E+00
     Gradient error          =      8.5E-22

     bfgs converged in   1 scf cycles and   0 bfgs steps
     (criteria: energy <  1.0E-04 Ry, force <  1.0E-03 Ry/Bohr)

     End of BFGS Geometry Optimization

     Final energy   =   -1397.6089272302 Ry
Begin final coordinates

ATOMIC_POSITIONS (alat)
Cu            0.0000000000        0.0000000000        0.0000000000
Ni            0.5000000000        0.5000000000        0.5000000000
Pt            0.2500000000        0.2500000000        0.2500000000
End final coordinates



     Writing output data file ./cunipt.save/

     init_run     :      1.08s CPU      1.12s WALL (       1 calls)
     electrons    :     14.20s CPU     14.20s WALL (       1 calls)
     forces       :      0.10s CPU      0.10s WALL (       1 calls)

     Called by init_run:
     wfcinit      :      0.03s CPU      0.03s WALL (       1 calls)
     potinit      :      0.33s CPU      0.35s WALL (       1 calls)
     hinit0       :      0.68s CPU      0.69s WALL (       1 calls)

     Called by electrons:
     c_bands      :      2.83s CPU      2.83s WALL (      27 calls)
     sum_band     :      1.18s CPU      1.18s WALL (      27 calls)
     v_of_rho     :      0.48s CPU      0.48s WALL (      28 calls)
     newd         :      0.90s CPU      0.91s WALL (      28 calls)
     PAW_pot      :      9.08s CPU      9.08s WALL (      28 calls)
     mix_rho      :      0.06s CPU      0.06s WALL (      27 calls)

     Called by c_bands:
     init_us_2    :      0.02s CPU      0.02s WALL (      55 calls)
     regterg      :      2.75s CPU      2.75s WALL (      28 calls)

     Called by *egterg:
     rdiaghg      :      0.07s CPU      0.07s WALL (     150 calls)
     h_psi        :      1.51s CPU      1.51s WALL (     152 calls)
     s_psi        :      0.16s CPU      0.16s WALL (     152 calls)
     g_psi        :      0.01s CPU      0.01s WALL (     123 calls)

     Called by h_psi:
     h_psi:calbec :      0.36s CPU      0.36s WALL (     152 calls)
     vloc_psi     :      0.99s CPU      0.99s WALL (     152 calls)
     add_vuspsi   :      0.16s CPU      0.16s WALL (     152 calls)

     General routines
     calbec       :      0.48s CPU      0.48s WALL (     183 calls)
     fft          :      0.21s CPU      0.22s WALL (     262 calls)
     ffts         :      0.02s CPU      0.02s WALL (      27 calls)
     fftw         :      1.03s CPU      1.03s WALL (    2990 calls)

     Parallel routines

     PWSCF        :     15.59s CPU     15.67s WALL


   This run was terminated on:  23:26:59  13Sep2024            

=------------------------------------------------------------------------------=
   JOB DONE.
=------------------------------------------------------------------------------=
