
     Program PWSCF v.6.7MaX starts on 13Sep2024 at 22:45:56 

     This program is part of the open-source Quantum ESPRESSO suite
     for quantum simulation of materials; please cite
         "P. Giannozzi et al., J. Phys.:Condens. Matter 21 395502 (2009);
         "P. Giannozzi et al., J. Phys.:Condens. Matter 29 465901 (2017);
          URL http://www.quantum-espresso.org", 
     in publications or presentations arising from this work. More details at
     http://www.quantum-espresso.org/quote

     Parallel version (MPI), running on     1 processors

     MPI processes distributed on     1 nodes
     Waiting for input...
     Reading input from standard input

     Current dimensions of program PWSCF are:
     Max number of different atomic species (ntypx) = 10
     Max number of k-points (npk) =  40000
     Max angular momentum in pseudopotentials (lmaxx) =  3

     Atomic positions and unit cell read from directory:
     ././cunipt.save/

     file Cu.upf: wavefunction(s)  4S 3D renormalized
     file Ni.upf: wavefunction(s)  3P 3D renormalized
     file Pt.upf: wavefunction(s)  6S 5D renormalized

     Subspace diagonalization in iterative solution of the eigenvalue problem:
     a serial algorithm will be used


     G-vector sticks info
     --------------------
     sticks:   dense  smooth     PW     G-vecs:    dense   smooth      PW
     Sum         967     967    301                20179    20179    3383



     bravais-lattice index     =            2
     lattice parameter (alat)  =      10.8900  a.u.
     unit-cell volume          =     322.8670 (a.u.)^3
     number of atoms/cell      =            3
     number of atomic types    =            3
     number of electrons       =        39.00
     number of Kohn-Sham states=           28
     kinetic-energy cutoff     =      60.0000  Ry
     charge density cutoff     =     240.0000  Ry
     Exchange-correlation= SLA  PW   PBX  PBC
                           (   1   4   3   4   0   0   0)

     celldm(1)=  10.890000  celldm(2)=   0.000000  celldm(3)=   0.000000
     celldm(4)=   0.000000  celldm(5)=   0.000000  celldm(6)=   0.000000

     crystal axes: (cart. coord. in units of alat)
               a(1) = (  -0.500000   0.000000   0.500000 )  
               a(2) = (   0.000000   0.500000   0.500000 )  
               a(3) = (  -0.500000   0.500000   0.000000 )  

     reciprocal axes: (cart. coord. in units 2 pi/alat)
               b(1) = ( -1.000000 -1.000000  1.000000 )  
               b(2) = (  1.000000  1.000000  1.000000 )  
               b(3) = ( -1.000000  1.000000 -1.000000 )  


     PseudoPot. # 1 for Cu read from file:
     ././Cu.upf
     MD5 check sum: cfffd1f38ee05704b3e17f46f1730a6f
     Pseudo is Projector augmented-wave + core cor, Zval = 11.0
     Generated using &quot;atomic&quot; code by A. Dal Corso  v.6.3
     Shape of augmentation charge: PSQ
     Using radial grid of 1199 points,  6 beta functions with: 
                l(1) =   0
                l(2) =   0
                l(3) =   1
                l(4) =   1
                l(5) =   2
                l(6) =   2
     Q(r) pseudized with 0 coefficients 


     PseudoPot. # 2 for Ni read from file:
     ././Ni.upf
     MD5 check sum: 6e86b733589c3ad8389697b807d86aa7
     Pseudo is Projector augmented-wave + core cor, Zval = 18.0
     Generated using &quot;atomic&quot; code by A. Dal Corso  v.6.3
     Shape of augmentation charge: PSQ
     Using radial grid of 1195 points,  6 beta functions with: 
                l(1) =   0
                l(2) =   0
                l(3) =   1
                l(4) =   1
                l(5) =   2
                l(6) =   2
     Q(r) pseudized with 0 coefficients 


     PseudoPot. # 3 for Pt read from file:
     ././Pt.upf
     MD5 check sum: c5224e9cd7a5e36e81f2def9f50bb494
     Pseudo is Projector augmented-wave + core cor, Zval = 10.0
     Generated using &quot;atomic&quot; code by A. Dal Corso  v.6.3
     Shape of augmentation charge: PSQ
     Using radial grid of 1277 points,  6 beta functions with: 
                l(1) =   0
                l(2) =   0
                l(3) =   1
                l(4) =   1
                l(5) =   2
                l(6) =   2
     Q(r) pseudized with 0 coefficients 


     atomic species   valence    mass     pseudopotential
        Cu            11.00    63.54600     Cu( 1.00)
        Ni            18.00    58.69300     Ni( 1.00)
        Pt            10.00   195.08000     Pt( 1.00)

     24 Sym. Ops. (no inversion) found


                                    s                        frac. trans.

      isym =  1     identity                                     

 cryst.   s( 1) = (     1          0          0      )
                  (     0          1          0      )
                  (     0          0          1      )

 cart.    s( 1) = (  1.0000000  0.0000000  0.0000000 )
                  (  0.0000000  1.0000000  0.0000000 )
                  (  0.0000000  0.0000000  1.0000000 )


      isym =  2     180 deg rotation - cart. axis [0,0,1]        

 cryst.   s( 2) = (     0          1         -1      )
                  (     1          0         -1      )
                  (     0          0         -1      )

 cart.    s( 2) = ( -1.0000000  0.0000000  0.0000000 )
                  (  0.0000000 -1.0000000  0.0000000 )
                  (  0.0000000  0.0000000  1.0000000 )


      isym =  3     180 deg rotation - cart. axis [0,1,0]        

 cryst.   s( 3) = (    -1          0          0      )
                  (    -1          0          1      )
                  (    -1          1          0      )

 cart.    s( 3) = ( -1.0000000  0.0000000  0.0000000 )
                  (  0.0000000  1.0000000  0.0000000 )
                  (  0.0000000  0.0000000 -1.0000000 )


      isym =  4     180 deg rotation - cart. axis [1,0,0]        

 cryst.   s( 4) = (     0         -1          1      )
                  (     0         -1          0      )
                  (     1         -1          0      )

 cart.    s( 4) = (  1.0000000  0.0000000  0.0000000 )
                  (  0.0000000 -1.0000000  0.0000000 )
                  (  0.0000000  0.0000000 -1.0000000 )


      isym =  5     120 deg rotation - cart. axis [-1,-1,-1]     

 cryst.   s( 5) = (    -1          0          1      )
                  (    -1          1          0      )
                  (    -1          0          0      )

 cart.    s( 5) = (  0.0000000  1.0000000  0.0000000 )
                  (  0.0000000  0.0000000  1.0000000 )
                  (  1.0000000  0.0000000  0.0000000 )


      isym =  6     120 deg rotation - cart. axis [-1,1,1]       

 cryst.   s( 6) = (     0          1          0      )
                  (     0          0          1      )
                  (     1          0          0      )

 cart.    s( 6) = (  0.0000000 -1.0000000  0.0000000 )
                  (  0.0000000  0.0000000  1.0000000 )
                  ( -1.0000000  0.0000000  0.0000000 )


      isym =  7     120 deg rotation - cart. axis [1,1,-1]       

 cryst.   s( 7) = (     1          0         -1      )
                  (     0          0         -1      )
                  (     0          1         -1      )

 cart.    s( 7) = (  0.0000000  1.0000000  0.0000000 )
                  (  0.0000000  0.0000000 -1.0000000 )
                  ( -1.0000000  0.0000000  0.0000000 )


      isym =  8     120 deg rotation - cart. axis [1,-1,1]       

 cryst.   s( 8) = (     0         -1          0      )
                  (     1         -1          0      )
                  (     0         -1          1      )

 cart.    s( 8) = (  0.0000000 -1.0000000  0.0000000 )
                  (  0.0000000  0.0000000 -1.0000000 )
                  (  1.0000000  0.0000000  0.0000000 )


      isym =  9     120 deg rotation - cart. axis [1,1,1]        

 cryst.   s( 9) = (     0          0         -1      )
                  (     0          1         -1      )
                  (     1          0         -1      )

 cart.    s( 9) = (  0.0000000  0.0000000  1.0000000 )
                  (  1.0000000  0.0000000  0.0000000 )
                  (  0.0000000  1.0000000  0.0000000 )


      isym = 10     120 deg rotation - cart. axis [-1,1,-1]      

 cryst.   s(10) = (    -1          1          0      )
                  (    -1          0          0      )
                  (    -1          0          1      )

 cart.    s(10) = (  0.0000000  0.0000000  1.0000000 )
                  ( -1.0000000  0.0000000  0.0000000 )
                  (  0.0000000 -1.0000000  0.0000000 )


      isym = 11     120 deg rotation - cart. axis [1,-1,-1]      

 cryst.   s(11) = (     0          0          1      )
                  (     1          0          0      )
                  (     0          1          0      )

 cart.    s(11) = (  0.0000000  0.0000000 -1.0000000 )
                  ( -1.0000000  0.0000000  0.0000000 )
                  (  0.0000000  1.0000000  0.0000000 )


      isym = 12     120 deg rotation - cart. axis [-1,-1,1]      

 cryst.   s(12) = (     1         -1          0      )
                  (     0         -1          1      )
                  (     0         -1          0      )

 cart.    s(12) = (  0.0000000  0.0000000 -1.0000000 )
                  (  1.0000000  0.0000000  0.0000000 )
                  (  0.0000000 -1.0000000  0.0000000 )


      isym = 13     inv. 180 deg rotation - cart. axis [1,1,0]   

 cryst.   s(13) = (     0          1          0      )
                  (     1          0          0      )
                  (     0          0          1      )

 cart.    s(13) = (  0.0000000 -1.0000000  0.0000000 )
                  ( -1.0000000  0.0000000  0.0000000 )
                  (  0.0000000  0.0000000  1.0000000 )


      isym = 14     inv. 180 deg rotation - cart. axis [1,-1,0]  

 cryst.   s(14) = (     1          0         -1      )
                  (     0          1         -1      )
                  (     0          0         -1      )

 cart.    s(14) = (  0.0000000  1.0000000  0.0000000 )
                  (  1.0000000  0.0000000  0.0000000 )
                  (  0.0000000  0.0000000  1.0000000 )


      isym = 15     inv.  90 deg rotation - cart. axis [0,0,-1]  

 cryst.   s(15) = (     0         -1          0      )
                  (     0         -1          1      )
                  (     1         -1          0      )

 cart.    s(15) = (  0.0000000 -1.0000000  0.0000000 )
                  (  1.0000000  0.0000000  0.0000000 )
                  (  0.0000000  0.0000000 -1.0000000 )


      isym = 16     inv.  90 deg rotation - cart. axis [0,0,1]   

 cryst.   s(16) = (    -1          0          1      )
                  (    -1          0          0      )
                  (    -1          1          0      )

 cart.    s(16) = (  0.0000000  1.0000000  0.0000000 )
                  ( -1.0000000  0.0000000  0.0000000 )
                  (  0.0000000  0.0000000 -1.0000000 )


      isym = 17     inv. 180 deg rotation - cart. axis [1,0,1]   

 cryst.   s(17) = (     1          0          0      )
                  (     0          0          1      )
                  (     0          1          0      )

 cart.    s(17) = (  0.0000000  0.0000000 -1.0000000 )
                  (  0.0000000  1.0000000  0.0000000 )
                  ( -1.0000000  0.0000000  0.0000000 )


      isym = 18     inv. 180 deg rotation - cart. axis [-1,0,1]  

 cryst.   s(18) = (    -1          0          0      )
                  (    -1          1          0      )
                  (    -1          0          1      )

 cart.    s(18) = (  0.0000000  0.0000000  1.0000000 )
                  (  0.0000000  1.0000000  0.0000000 )
                  (  1.0000000  0.0000000  0.0000000 )


      isym = 19     inv.  90 deg rotation - cart. axis [0,1,0]   

 cryst.   s(19) = (     0         -1          1      )
                  (     1         -1          0      )
                  (     0         -1          0      )

 cart.    s(19) = (  0.0000000  0.0000000 -1.0000000 )
                  (  0.0000000 -1.0000000  0.0000000 )
                  (  1.0000000  0.0000000  0.0000000 )


      isym = 20     inv.  90 deg rotation - cart. axis [0,-1,0]  

 cryst.   s(20) = (     0          1         -1      )
                  (     0          0         -1      )
                  (     1          0         -1      )

 cart.    s(20) = (  0.0000000  0.0000000  1.0000000 )
                  (  0.0000000 -1.0000000  0.0000000 )
                  ( -1.0000000  0.0000000  0.0000000 )


      isym = 21     inv. 180 deg rotation - cart. axis [0,1,1]   

 cryst.   s(21) = (     1         -1          0      )
                  (     0         -1          0      )
                  (     0         -1          1      )

 cart.    s(21) = (  1.0000000  0.0000000  0.0000000 )
                  (  0.0000000  0.0000000 -1.0000000 )
                  (  0.0000000 -1.0000000  0.0000000 )


      isym = 22     inv. 180 deg rotation - cart. axis [0,1,-1]  

 cryst.   s(22) = (     0          0          1      )
                  (     0          1          0      )
                  (     1          0          0      )

 cart.    s(22) = (  1.0000000  0.0000000  0.0000000 )
                  (  0.0000000  0.0000000  1.0000000 )
                  (  0.0000000  1.0000000  0.0000000 )


      isym = 23     inv.  90 deg rotation - cart. axis [-1,0,0]  

 cryst.   s(23) = (     0          0         -1      )
                  (     1          0         -1      )
                  (     0          1         -1      )

 cart.    s(23) = ( -1.0000000  0.0000000  0.0000000 )
                  (  0.0000000  0.0000000 -1.0000000 )
                  (  0.0000000  1.0000000  0.0000000 )


      isym = 24     inv.  90 deg rotation - cart. axis [1,0,0]   

 cryst.   s(24) = (    -1          1          0      )
                  (    -1          0          1      )
                  (    -1          0          0      )

 cart.    s(24) = ( -1.0000000  0.0000000  0.0000000 )
                  (  0.0000000  0.0000000  1.0000000 )
                  (  0.0000000 -1.0000000  0.0000000 )


     point group T_d (-43m) 
     there are  5 classes
     the character table:

       E     8C3   3C2   6S4   6s_d 
A_1    1.00  1.00  1.00  1.00  1.00
A_2    1.00  1.00  1.00 -1.00 -1.00
E      2.00 -1.00  2.00  0.00  0.00
T_1    3.00  0.00 -1.00  1.00 -1.00
T_2    3.00  0.00 -1.00 -1.00  1.00

     the symmetry operations in each class and the name of the first element:

     E        1
          identity                                               
     8C3      5    7    8    6   12    9   10   11
          120 deg rotation - cart. axis [-1,-1,-1]               
     3C2      2    3    4
          180 deg rotation - cart. axis [0,0,1]                  
     6S4     15   16   20   19   23   24
          inv.  90 deg rotation - cart. axis [0,0,-1]            
     6s_d    13   14   17   18   21   22
          inv. 180 deg rotation - cart. axis [1,1,0]             

   Cartesian axes

     site n.     atom                  positions (alat units)
         1           Cu  tau(   1) = (   0.0000000   0.0000000   0.0000000  )
         2           Ni  tau(   2) = (   0.5000000   0.5000000   0.5000000  )
         3           Pt  tau(   3) = (   0.2500000   0.2500000   0.2500000  )

   Crystallographic axes

     site n.     atom                  positions (cryst. coord.)
         1           Cu  tau(   1) = (  0.0000000  0.0000000  0.0000000  )
         2           Ni  tau(   2) = ( -0.5000000  1.5000000 -0.5000000  )
         3           Pt  tau(   3) = ( -0.2500000  0.7500000 -0.2500000  )

     number of k points=    47  Gaussian smearing, width (Ry)=  0.0050
                       cart. coord. in units 2pi/alat
        k(    1) = (   0.0000000   0.0000000   0.0000000), wk =   0.0020000
        k(    2) = (  -0.1000000   0.1000000  -0.1000000), wk =   0.0160000
        k(    3) = (  -0.2000000   0.2000000  -0.2000000), wk =   0.0160000
        k(    4) = (  -0.3000000   0.3000000  -0.3000000), wk =   0.0160000
        k(    5) = (  -0.4000000   0.4000000  -0.4000000), wk =   0.0160000
        k(    6) = (   0.5000000  -0.5000000   0.5000000), wk =   0.0080000
        k(    7) = (   0.0000000   0.2000000   0.0000000), wk =   0.0120000
        k(    8) = (  -0.1000000   0.3000000  -0.1000000), wk =   0.0480000
        k(    9) = (  -0.2000000   0.4000000  -0.2000000), wk =   0.0480000
        k(   10) = (  -0.3000000   0.5000000  -0.3000000), wk =   0.0480000
        k(   11) = (   0.6000000  -0.4000000   0.6000000), wk =   0.0480000
        k(   12) = (   0.5000000  -0.3000000   0.5000000), wk =   0.0480000
        k(   13) = (   0.4000000  -0.2000000   0.4000000), wk =   0.0480000
        k(   14) = (   0.3000000  -0.1000000   0.3000000), wk =   0.0480000
        k(   15) = (   0.2000000   0.0000000   0.2000000), wk =   0.0240000
        k(   16) = (   0.0000000   0.4000000   0.0000000), wk =   0.0120000
        k(   17) = (  -0.1000000   0.5000000  -0.1000000), wk =   0.0480000
        k(   18) = (  -0.2000000   0.6000000  -0.2000000), wk =   0.0480000
        k(   19) = (   0.7000000  -0.3000000   0.7000000), wk =   0.0480000
        k(   20) = (   0.6000000  -0.2000000   0.6000000), wk =   0.0480000
        k(   21) = (   0.5000000  -0.1000000   0.5000000), wk =   0.0480000
        k(   22) = (   0.4000000   0.0000000   0.4000000), wk =   0.0240000
        k(   23) = (   0.0000000   0.6000000   0.0000000), wk =   0.0120000
        k(   24) = (  -0.1000000   0.7000000  -0.1000000), wk =   0.0480000
        k(   25) = (   0.8000000  -0.2000000   0.8000000), wk =   0.0480000
        k(   26) = (   0.7000000  -0.1000000   0.7000000), wk =   0.0480000
        k(   27) = (   0.6000000  -0.0000000   0.6000000), wk =   0.0240000
        k(   28) = (   0.0000000   0.8000000   0.0000000), wk =   0.0120000
        k(   29) = (   0.9000000  -0.1000000   0.9000000), wk =   0.0480000
        k(   30) = (   0.8000000   0.0000000   0.8000000), wk =   0.0240000
        k(   31) = (   0.0000000  -1.0000000   0.0000000), wk =   0.0060000
        k(   32) = (  -0.2000000   0.4000000   0.0000000), wk =   0.0480000
        k(   33) = (  -0.3000000   0.5000000  -0.1000000), wk =   0.0960000
        k(   34) = (   0.6000000  -0.4000000   0.8000000), wk =   0.0960000
        k(   35) = (   0.5000000  -0.3000000   0.7000000), wk =   0.0480000
        k(   36) = (  -0.2000000   0.6000000   0.0000000), wk =   0.0480000
        k(   37) = (   0.7000000  -0.3000000   0.9000000), wk =   0.0960000
        k(   38) = (   0.6000000  -0.2000000   0.8000000), wk =   0.0960000
        k(   39) = (   0.5000000  -0.1000000   0.7000000), wk =   0.0960000
        k(   40) = (   0.4000000   0.0000000   0.6000000), wk =   0.0480000
        k(   41) = (   0.8000000  -0.2000000   1.0000000), wk =   0.0480000
        k(   42) = (   0.7000000  -0.1000000   0.9000000), wk =   0.0960000
        k(   43) = (   0.6000000   0.0000000   0.8000000), wk =   0.0480000
        k(   44) = (  -0.2000000  -1.0000000   0.0000000), wk =   0.0240000
        k(   45) = (   0.6000000  -0.2000000   1.0000000), wk =   0.0480000
        k(   46) = (   0.5000000  -0.1000000   0.9000000), wk =   0.0480000
        k(   47) = (  -0.4000000  -1.0000000   0.0000000), wk =   0.0240000

                       cryst. coord.
        k(    1) = (   0.0000000   0.0000000   0.0000000), wk =   0.0020000
        k(    2) = (   0.0000000   0.0000000   0.1000000), wk =   0.0160000
        k(    3) = (   0.0000000   0.0000000   0.2000000), wk =   0.0160000
        k(    4) = (   0.0000000   0.0000000   0.3000000), wk =   0.0160000
        k(    5) = (   0.0000000   0.0000000   0.4000000), wk =   0.0160000
        k(    6) = (   0.0000000   0.0000000  -0.5000000), wk =   0.0080000
        k(    7) = (   0.0000000   0.1000000   0.1000000), wk =   0.0120000
        k(    8) = (   0.0000000   0.1000000   0.2000000), wk =   0.0480000
        k(    9) = (   0.0000000   0.1000000   0.3000000), wk =   0.0480000
        k(   10) = (   0.0000000   0.1000000   0.4000000), wk =   0.0480000
        k(   11) = (   0.0000000   0.1000000  -0.5000000), wk =   0.0480000
        k(   12) = (   0.0000000   0.1000000  -0.4000000), wk =   0.0480000
        k(   13) = (   0.0000000   0.1000000  -0.3000000), wk =   0.0480000
        k(   14) = (   0.0000000   0.1000000  -0.2000000), wk =   0.0480000
        k(   15) = (   0.0000000   0.1000000  -0.1000000), wk =   0.0240000
        k(   16) = (   0.0000000   0.2000000   0.2000000), wk =   0.0120000
        k(   17) = (   0.0000000   0.2000000   0.3000000), wk =   0.0480000
        k(   18) = (   0.0000000   0.2000000   0.4000000), wk =   0.0480000
        k(   19) = (   0.0000000   0.2000000  -0.5000000), wk =   0.0480000
        k(   20) = (   0.0000000   0.2000000  -0.4000000), wk =   0.0480000
        k(   21) = (   0.0000000   0.2000000  -0.3000000), wk =   0.0480000
        k(   22) = (   0.0000000   0.2000000  -0.2000000), wk =   0.0240000
        k(   23) = (   0.0000000   0.3000000   0.3000000), wk =   0.0120000
        k(   24) = (   0.0000000   0.3000000   0.4000000), wk =   0.0480000
        k(   25) = (   0.0000000   0.3000000  -0.5000000), wk =   0.0480000
        k(   26) = (   0.0000000   0.3000000  -0.4000000), wk =   0.0480000
        k(   27) = (   0.0000000   0.3000000  -0.3000000), wk =   0.0240000
        k(   28) = (   0.0000000   0.4000000   0.4000000), wk =   0.0120000
        k(   29) = (   0.0000000   0.4000000  -0.5000000), wk =   0.0480000
        k(   30) = (   0.0000000   0.4000000  -0.4000000), wk =   0.0240000
        k(   31) = (   0.0000000  -0.5000000  -0.5000000), wk =   0.0060000
        k(   32) = (   0.1000000   0.2000000   0.3000000), wk =   0.0480000
        k(   33) = (   0.1000000   0.2000000   0.4000000), wk =   0.0960000
        k(   34) = (   0.1000000   0.2000000  -0.5000000), wk =   0.0960000
        k(   35) = (   0.1000000   0.2000000  -0.4000000), wk =   0.0480000
        k(   36) = (   0.1000000   0.3000000   0.4000000), wk =   0.0480000
        k(   37) = (   0.1000000   0.3000000  -0.5000000), wk =   0.0960000
        k(   38) = (   0.1000000   0.3000000  -0.4000000), wk =   0.0960000
        k(   39) = (   0.1000000   0.3000000  -0.3000000), wk =   0.0960000
        k(   40) = (   0.1000000   0.3000000  -0.2000000), wk =   0.0480000
        k(   41) = (   0.1000000   0.4000000  -0.5000000), wk =   0.0480000
        k(   42) = (   0.1000000   0.4000000  -0.4000000), wk =   0.0960000
        k(   43) = (   0.1000000   0.4000000  -0.3000000), wk =   0.0480000
        k(   44) = (   0.1000000  -0.5000000  -0.4000000), wk =   0.0240000
        k(   45) = (   0.2000000   0.4000000  -0.4000000), wk =   0.0480000
        k(   46) = (   0.2000000   0.4000000  -0.3000000), wk =   0.0480000
        k(   47) = (   0.2000000  -0.5000000  -0.3000000), wk =   0.0240000

     Dense  grid:    20179 G-vectors     FFT dimensions: (  40,  40,  40)

     Dynamical RAM for                 wfc:       1.08 MB

     Dynamical RAM for     wfc (w. buffer):       1.08 MB

     Dynamical RAM for           str. fact:       0.92 MB

     Dynamical RAM for           local pot:       0.00 MB

     Dynamical RAM for          nlocal pot:       2.09 MB

     Dynamical RAM for                qrad:       3.73 MB

     Dynamical RAM for          rho,v,vnew:       2.39 MB

     Dynamical RAM for           G-vectors:       1.31 MB

     Dynamical RAM for          h,s,v(r/c):       0.14 MB

     Dynamical RAM for          <psi|beta>:       0.02 MB

     Dynamical RAM for                 psi:       2.17 MB

     Dynamical RAM for                hpsi:       2.17 MB

     Dynamical RAM for                spsi:       2.17 MB

     Dynamical RAM for      wfcinit/wfcrot:       2.18 MB

     Dynamical RAM for           addusdens:      57.58 MB

     Estimated static dynamical RAM per process >      15.20 MB

     Estimated max dynamical RAM per process >      72.78 MB

     Check: negative core charge=   -0.000002

     The potential is recalculated from file :
     ././cunipt.save/charge-density

     Starting wfcs are   28 randomized atomic wfcs
     Checking if some PAW data can be deallocated... 

     Band Structure Calculation
     Davidson diagonalization with overlap

     Computing kpt #:     1  of    47
     total cpu time spent up to now is        3.3 secs

     Computing kpt #:     2  of    47
     total cpu time spent up to now is        5.2 secs

     Computing kpt #:     3  of    47
     total cpu time spent up to now is        7.0 secs

     Computing kpt #:     4  of    47
     total cpu time spent up to now is        8.8 secs

     Computing kpt #:     5  of    47
     total cpu time spent up to now is       10.7 secs

     Computing kpt #:     6  of    47
     total cpu time spent up to now is       12.4 secs

     Computing kpt #:     7  of    47
     total cpu time spent up to now is       14.3 secs

     Computing kpt #:     8  of    47
     total cpu time spent up to now is       16.3 secs

     Computing kpt #:     9  of    47
     total cpu time spent up to now is       18.0 secs

     Computing kpt #:    10  of    47
     total cpu time spent up to now is       19.8 secs

     Computing kpt #:    11  of    47
     total cpu time spent up to now is       21.5 secs

     Computing kpt #:    12  of    47
     total cpu time spent up to now is       23.5 secs

     Computing kpt #:    13  of    47
     total cpu time spent up to now is       25.4 secs

     Computing kpt #:    14  of    47
     total cpu time spent up to now is       27.4 secs

     Computing kpt #:    15  of    47
     total cpu time spent up to now is       29.4 secs

     Computing kpt #:    16  of    47
     total cpu time spent up to now is       31.0 secs

     Computing kpt #:    17  of    47
     total cpu time spent up to now is       32.8 secs

     Computing kpt #:    18  of    47
     total cpu time spent up to now is       34.4 secs

     Computing kpt #:    19  of    47
     total cpu time spent up to now is       36.3 secs

     Computing kpt #:    20  of    47
     total cpu time spent up to now is       38.4 secs

     Computing kpt #:    21  of    47
     total cpu time spent up to now is       40.5 secs

     Computing kpt #:    22  of    47
     total cpu time spent up to now is       42.2 secs

     Computing kpt #:    23  of    47
     total cpu time spent up to now is       43.9 secs

     Computing kpt #:    24  of    47
     total cpu time spent up to now is       45.8 secs

     Computing kpt #:    25  of    47
     total cpu time spent up to now is       47.6 secs

     Computing kpt #:    26  of    47
     total cpu time spent up to now is       49.4 secs

     Computing kpt #:    27  of    47
     total cpu time spent up to now is       51.4 secs

     Computing kpt #:    28  of    47
     total cpu time spent up to now is       53.6 secs

     Computing kpt #:    29  of    47
     total cpu time spent up to now is       55.6 secs

     Computing kpt #:    30  of    47
     total cpu time spent up to now is       57.5 secs

     Computing kpt #:    31  of    47
     total cpu time spent up to now is       59.5 secs

     Computing kpt #:    32  of    47
     total cpu time spent up to now is       61.4 secs

     Computing kpt #:    33  of    47
     total cpu time spent up to now is       63.4 secs

     Computing kpt #:    34  of    47
     total cpu time spent up to now is       65.3 secs

     Computing kpt #:    35  of    47
     total cpu time spent up to now is       67.3 secs

     Computing kpt #:    36  of    47
     total cpu time spent up to now is       69.3 secs

     Computing kpt #:    37  of    47
     total cpu time spent up to now is       71.1 secs

     Computing kpt #:    38  of    47
     total cpu time spent up to now is       73.1 secs

     Computing kpt #:    39  of    47
     total cpu time spent up to now is       74.9 secs

     Computing kpt #:    40  of    47
     total cpu time spent up to now is       76.9 secs

     Computing kpt #:    41  of    47
     total cpu time spent up to now is       79.0 secs

     Computing kpt #:    42  of    47
     total cpu time spent up to now is       80.9 secs

     Computing kpt #:    43  of    47
     total cpu time spent up to now is       82.7 secs

     Computing kpt #:    44  of    47
     total cpu time spent up to now is       84.6 secs

     Computing kpt #:    45  of    47
     total cpu time spent up to now is       86.4 secs

     Computing kpt #:    46  of    47
     total cpu time spent up to now is       88.4 secs

     Computing kpt #:    47  of    47
     total cpu time spent up to now is       90.2 secs

     ethr =  2.56E-09,  avg # of iterations = 44.0

     total cpu time spent up to now is       90.2 secs

     End of band structure calculation

          k = 0.0000 0.0000 0.0000 (  2637 PWs)   bands (ev):

   -91.2439 -51.6347 -51.6347 -51.6347   3.7383   7.5536   7.5536   7.7453
     7.7453   7.7453   8.9947   8.9947   8.9947  10.4219  10.4219  10.7729
    10.7729  10.7729  11.3073  11.3073  20.0189  21.1511  21.1511  21.1511
    21.2262  21.2262  21.2262  22.0925

     occupation numbers 
     1.0000   1.0000   1.0000   1.0000   1.0000   1.0000   1.0000   1.0000
     1.0000   1.0000   1.0000   1.0000   1.0000   1.0000   1.0000   1.0000
     1.0000   1.0000   0.9993   0.9993   0.0000   0.0000   0.0000   0.0000
     0.0000   0.0000   0.0000   0.0000

          k =-0.1000 0.1000-0.1000 (  2556 PWs)   bands (ev):

   -91.2432 -51.6345 -51.6343 -51.6343   3.8886   7.5812   7.5812   7.7105
     7.7474   7.7474   9.0095   9.0259   9.0259  10.4020  10.4020  10.6646
    10.7578  10.7578  11.3036  11.3036  18.5296  20.1501  20.1501  20.2320
    21.8932  22.1329  22.1329  22.4451

     occupation numbers 
     1.0000   1.0000   1.0000   1.0000   1.0000   1.0000   1.0000   1.0000
     1.0000   1.0000   1.0000   1.0000   1.0000   1.0000   1.0000   1.0000
     1.0000   1.0000   0.9994   0.9994   0.0000   0.0000   0.0000   0.0000
     0.0000   0.0000   0.0000   0.0000

          k =-0.2000 0.2000-0.2000 (  2553 PWs)   bands (ev):

   -91.2431 -51.6347 -51.6344 -51.6344   4.3208   7.6236   7.6236   7.6436
     7.7902   7.7902   9.0076   9.1111   9.1111  10.3059  10.3059  10.4059
    10.7477  10.7477  11.3036  11.3036  16.1474  19.1974  19.1974  20.1904
    21.7995  21.9816  21.9816  23.0691

     occupation numbers 
     1.0000   1.0000   1.0000   1.0000   1.0000   1.0000   1.0000   1.0000
     1.0000   1.0000   1.0000   1.0000   1.0000   1.0000   1.0000   1.0000
     1.0000   1.0000   0.9994   0.9994   0.0000   0.0000   0.0000   0.0000
     0.0000   0.0000   0.0000   0.0000

          k =-0.3000 0.3000-0.3000 (  2539 PWs)   bands (ev):

   -91.2430 -51.6345 -51.6345 -51.6345   4.9709   7.6182   7.6194   7.6194
     7.9201   7.9201   8.8836   9.2276   9.2276  10.1060  10.1060  10.1546
    10.7859  10.7859  11.3153  11.3153  14.0845  18.3978  18.3978  20.0512
    21.6005  21.6873  21.6873  24.4715

     occupation numbers 
     1.0000   1.0000   1.0000   1.0000   1.0000   1.0000   1.0000   1.0000
     1.0000   1.0000   1.0000   1.0000   1.0000   1.0000   1.0000   1.0000
     1.0000   1.0000   0.9987   0.9987   0.0000   0.0000   0.0000   0.0000
     0.0000   0.0000   0.0000   0.0000

          k =-0.4000 0.4000-0.4000 (  2515 PWs)   bands (ev):

   -91.2428 -51.6346 -51.6343 -51.6343   5.6609   7.6008   7.6008   7.7083
     8.0653   8.0653   8.5776   9.3484   9.3484   9.8730   9.8730  10.0235
    10.8436  10.8436  11.3297  11.3297  12.5812  17.8521  17.8521  19.9150
    21.4776  21.4892  21.4892  26.2729

     occupation numbers 
     1.0000   1.0000   1.0000   1.0000   1.0000   1.0000   1.0000   1.0000
     1.0000   1.0000   1.0000   1.0000   1.0000   1.0000   1.0000   1.0000
     1.0000   1.0000   0.9967   0.9967   0.0000   0.0000   0.0000   0.0000
     0.0000   0.0000   0.0000   0.0000

          k = 0.5000-0.5000 0.5000 (  2512 PWs)   bands (ev):

   -91.2427 -51.6347 -51.6344 -51.6344   5.9920   7.5926   7.5926   7.8869
     8.1305   8.1305   8.2819   9.4207   9.4207   9.7468   9.7468   9.9889
    10.8707  10.8707  11.3358  11.3358  12.0029  17.6565  17.6565  19.8623
    21.4212  21.4212  21.4370  26.9923

     occupation numbers 
     1.0000   1.0000   1.0000   1.0000   1.0000   1.0000   1.0000   1.0000
     1.0000   1.0000   1.0000   1.0000   1.0000   1.0000   1.0000   1.0000
     1.0000   1.0000   0.9952   0.9952   0.0000   0.0000   0.0000   0.0000
     0.0000   0.0000   0.0000   0.0000

          k = 0.0000 0.2000 0.0000 (  2557 PWs)   bands (ev):

   -91.2432 -51.6345 -51.6344 -51.6344   3.9391   7.5457   7.6332   7.6733
     7.7577   7.7577   8.9178   9.0910   9.0910  10.3985  10.3985  10.6948
    10.7269  10.7269  11.2439  11.3440  19.1052  19.1052  19.5638  19.8836
    21.2671  22.1315  22.7689  22.7689

     occupation numbers 
     1.0000   1.0000   1.0000   1.0000   1.0000   1.0000   1.0000   1.0000
     1.0000   1.0000   1.0000   1.0000   1.0000   1.0000   1.0000   1.0000
     1.0000   1.0000   1.0000   0.9922   0.0000   0.0000   0.0000   0.0000
     0.0000   0.0000   0.0000   0.0000

          k =-0.1000 0.3000-0.1000 (  2561 PWs)   bands (ev):

   -91.2432 -51.6347 -51.6345 -51.6344   4.2797   7.5215   7.6290   7.6975
     7.7673   7.8064   8.8867   9.1817   9.2065  10.3223  10.3457  10.5040
    10.7036  10.7353  11.1946  11.3619  16.9009  18.1761  19.0717  20.0626
    21.0072  22.2621  22.9318  22.9646

     occupation numbers 
     1.0000   1.0000   1.0000   1.0000   1.0000   1.0000   1.0000   1.0000
     1.0000   1.0000   1.0000   1.0000   1.0000   1.0000   1.0000   1.0000
     1.0000   1.0000   1.0000   0.9795   0.0000   0.0000   0.0000   0.0000
     0.0000   0.0000   0.0000   0.0000

          k =-0.2000 0.4000-0.2000 (  2538 PWs)   bands (ev):

   -91.2430 -51.6346 -51.6345 -51.6344   4.8653   7.4587   7.6579   7.6863
     7.8079   7.9561   8.9006   9.2281   9.3416  10.1119  10.2131  10.2534
    10.7550  10.7614  11.1883  11.3731  14.7180  17.4671  18.2231  19.7963
    22.0859  22.2500  22.7433  22.7920

     occupation numbers 
     1.0000   1.0000   1.0000   1.0000   1.0000   1.0000   1.0000   1.0000
     1.0000   1.0000   1.0000   1.0000   1.0000   1.0000   1.0000   1.0000
     1.0000   1.0000   1.0000   0.9650   0.0000   0.0000   0.0000   0.0000
     0.0000   0.0000   0.0000   0.0000

          k =-0.3000 0.5000-0.3000 (  2531 PWs)   bands (ev):

   -91.2429 -51.6347 -51.6344 -51.6344   5.5665   7.4259   7.6551   7.7116
     7.8993   8.1120   8.8364   9.2615   9.4611   9.8457  10.0140  10.0925
    10.8139  10.8205  11.2394  11.3700  12.9831  17.0774  17.3819  19.6283
    22.1174  22.3961  22.4533  23.9355

     occupation numbers 
     1.0000   1.0000   1.0000   1.0000   1.0000   1.0000   1.0000   1.0000
     1.0000   1.0000   1.0000   1.0000   1.0000   1.0000   1.0000   1.0000
     1.0000   1.0000   1.0000   0.9697   0.0000   0.0000   0.0000   0.0000
     0.0000   0.0000   0.0000   0.0000

          k = 0.6000-0.4000 0.6000 (  2529 PWs)   bands (ev):

   -91.2429 -51.6347 -51.6345 -51.6344   6.0607   7.4457   7.6282   7.8328
     7.9330   8.1839   8.6801   9.3677   9.4595   9.7345   9.8419  10.0128
    10.8303  10.8794  11.3253  11.3330  12.0322  16.7669  17.0974  19.6164
    21.8881  22.0510  22.6265  25.7134

     occupation numbers 
     1.0000   1.0000   1.0000   1.0000   1.0000   1.0000   1.0000   1.0000
     1.0000   1.0000   1.0000   1.0000   1.0000   1.0000   1.0000   1.0000
     1.0000   1.0000   0.9975   0.9959   0.0000   0.0000   0.0000   0.0000
     0.0000   0.0000   0.0000   0.0000

          k = 0.5000-0.3000 0.5000 (  2530 PWs)   bands (ev):

   -91.2429 -51.6347 -51.6345 -51.6344   5.9430   7.4792   7.6164   7.7705
     7.9867   8.1117   8.7421   9.3146   9.4753   9.7583   9.8809  10.0225
    10.7968  10.8972  11.2535  11.3847  12.2508  16.5069  17.5555  19.7585
    21.6613  21.7858  22.9737  26.0017

     occupation numbers 
     1.0000   1.0000   1.0000   1.0000   1.0000   1.0000   1.0000   1.0000
     1.0000   1.0000   1.0000   1.0000   1.0000   1.0000   1.0000   1.0000
     1.0000   1.0000   1.0000   0.9420   0.0000   0.0000   0.0000   0.0000
     0.0000   0.0000   0.0000   0.0000

          k = 0.4000-0.2000 0.4000 (  2520 PWs)   bands (ev):

   -91.2428 -51.6345 -51.6343 -51.6343   5.3283   7.5008   7.6208   7.6873
     7.9454   7.9678   8.9310   9.1878   9.4163   9.9257  10.0918  10.1123
    10.7577  10.8457  11.1914  11.3966  13.5176  16.6371  18.3932  20.0651
    21.5039  21.6364  23.3219  24.2657

     occupation numbers 
     1.0000   1.0000   1.0000   1.0000   1.0000   1.0000   1.0000   1.0000
     1.0000   1.0000   1.0000   1.0000   1.0000   1.0000   1.0000   1.0000
     1.0000   1.0000   1.0000   0.9071   0.0000   0.0000   0.0000   0.0000
     0.0000   0.0000   0.0000   0.0000

          k = 0.3000-0.1000 0.3000 (  2553 PWs)   bands (ev):

   -91.2431 -51.6346 -51.6345 -51.6345   4.6440   7.5517   7.6251   7.6784
     7.7931   7.8699   9.0093   9.0864   9.2961  10.1774  10.2737  10.2999
    10.7426  10.7573  11.1923  11.3782  15.4287  17.0937  19.4959  20.5391
    21.3699  21.5925  22.7669  23.2541

     occupation numbers 
     1.0000   1.0000   1.0000   1.0000   1.0000   1.0000   1.0000   1.0000
     1.0000   1.0000   1.0000   1.0000   1.0000   1.0000   1.0000   1.0000
     1.0000   1.0000   1.0000   0.9559   0.0000   0.0000   0.0000   0.0000
     0.0000   0.0000   0.0000   0.0000

          k = 0.2000 0.0000 0.2000 (  2561 PWs)   bands (ev):

   -91.2432 -51.6346 -51.6344 -51.6344   4.1334   7.5943   7.6198   7.6672
     7.7406   7.7861   8.9989   9.0260   9.1610  10.3453  10.3712  10.5349
    10.7198  10.7550  11.2399  11.3474  17.6412  17.8374  20.6278  20.7905
    21.3604  21.4178  22.1449  22.3927

     occupation numbers 
     1.0000   1.0000   1.0000   1.0000   1.0000   1.0000   1.0000   1.0000
     1.0000   1.0000   1.0000   1.0000   1.0000   1.0000   1.0000   1.0000
     1.0000   1.0000   1.0000   0.9905   0.0000   0.0000   0.0000   0.0000
     0.0000   0.0000   0.0000   0.0000

          k = 0.0000 0.4000 0.0000 (  2573 PWs)   bands (ev):

   -91.2433 -51.6348 -51.6346 -51.6346   4.5269   7.3854   7.5749   7.7928
     7.7928   7.8647   8.7664   9.3522   9.3522  10.3098  10.3251  10.5886
    10.6407  10.6407  11.0815  11.3781  17.1791  17.1791  17.6597  19.1915
    20.0329  23.6911  23.6911  23.9274

     occupation numbers 
     1.0000   1.0000   1.0000   1.0000   1.0000   1.0000   1.0000   1.0000
     1.0000   1.0000   1.0000   1.0000   1.0000   1.0000   1.0000   1.0000
     1.0000   1.0000   1.0000   0.9562   0.0000   0.0000   0.0000   0.0000
     0.0000   0.0000   0.0000   0.0000

          k =-0.1000 0.5000-0.1000 (  2533 PWs)   bands (ev):

   -91.2429 -51.6346 -51.6344 -51.6344   5.0326   7.2569   7.5653   7.7850
     7.8096   8.0509   8.7477   9.4734   9.5046  10.1344  10.2596  10.4063
    10.6863  10.7145  11.0314  11.3840  15.2963  16.3944  16.8695  19.3348
    20.2619  23.8419  24.0140  24.5679

     occupation numbers 
     1.0000   1.0000   1.0000   1.0000   1.0000   1.0000   1.0000   1.0000
     1.0000   1.0000   1.0000   1.0000   1.0000   1.0000   1.0000   1.0000
     1.0000   1.0000   1.0000   0.9435   0.0000   0.0000   0.0000   0.0000
     0.0000   0.0000   0.0000   0.0000

          k =-0.2000 0.6000-0.2000 (  2532 PWs)   bands (ev):

   -91.2429 -51.6347 -51.6344 -51.6344   5.7007   7.1715   7.6063   7.7522
     7.8277   8.2419   8.8137   9.5108   9.6327   9.8236  10.1207  10.2455
    10.7472  10.8067  11.1283  11.3857  13.4282  15.9538  15.9892  19.3157
    21.6008  23.5895  23.8236  24.6354

     occupation numbers 
     1.0000   1.0000   1.0000   1.0000   1.0000   1.0000   1.0000   1.0000
     1.0000   1.0000   1.0000   1.0000   1.0000   1.0000   1.0000   1.0000
     1.0000   1.0000   1.0000   0.9395   0.0000   0.0000   0.0000   0.0000
     0.0000   0.0000   0.0000   0.0000

          k = 0.7000-0.3000 0.7000 (  2521 PWs)   bands (ev):

   -91.2428 -51.6346 -51.6344 -51.6343   6.2739   7.1768   7.6815   7.7122
     7.8403   8.3499   8.9262   9.5048   9.5133   9.7536   9.9923  10.1207
    10.7214  10.9136  11.3107  11.3703  12.1298  15.2351  15.9765  19.3541
    23.1197  23.3077  23.4037  24.9419

     occupation numbers 
     1.0000   1.0000   1.0000   1.0000   1.0000   1.0000   1.0000   1.0000
     1.0000   1.0000   1.0000   1.0000   1.0000   1.0000   1.0000   1.0000
     1.0000   1.0000   0.9991   0.9692   0.0000   0.0000   0.0000   0.0000
     0.0000   0.0000   0.0000   0.0000

          k = 0.6000-0.2000 0.6000 (  2549 PWs)   bands (ev):

   -91.2431 -51.6348 -51.6345 -51.6345   6.3325   7.2930   7.6791   7.7272
     7.8336   8.2801   9.0707   9.3143   9.5243   9.8674   9.8920  10.0647
    10.6821  10.9261  11.2580  11.4233  12.0189  14.7694  16.4945  19.5074
    22.7591  22.9686  24.5151  25.8923

     occupation numbers 
     1.0000   1.0000   1.0000   1.0000   1.0000   1.0000   1.0000   1.0000
     1.0000   1.0000   1.0000   1.0000   1.0000   1.0000   1.0000   1.0000
     1.0000   1.0000   1.0000   0.7791   0.0000   0.0000   0.0000   0.0000
     0.0000   0.0000   0.0000   0.0000

          k = 0.5000-0.1000 0.5000 (  2538 PWs)   bands (ev):

   -91.2430 -51.6347 -51.6345 -51.6345   5.8623   7.3700   7.6606   7.6774
     7.9048   8.0758   9.1351   9.2033   9.6084   9.7687  10.0571  10.0994
    10.6718  10.9317  11.0753  11.4495  13.0843  14.7074  17.4089  19.7904
    22.4629  22.5936  23.9219  24.8483

     occupation numbers 
     1.0000   1.0000   1.0000   1.0000   1.0000   1.0000   1.0000   1.0000
     1.0000   1.0000   1.0000   1.0000   1.0000   1.0000   1.0000   1.0000
     1.0000   1.0000   1.0000   0.5884   0.0000   0.0000   0.0000   0.0000
     0.0000   0.0000   0.0000   0.0000

          k = 0.4000 0.0000 0.4000 (  2533 PWs)   bands (ev):

   -91.2429 -51.6346 -51.6345 -51.6344   5.2018   7.4451   7.6499   7.6817
     7.8814   7.9170   9.0891   9.1249   9.4848   9.9540  10.1868  10.1966
    10.7017  10.8511  11.0726  11.4264  14.6280  15.2090  18.5402  20.2040
    22.0535  22.1857  22.8262  23.6134

     occupation numbers 
     1.0000   1.0000   1.0000   1.0000   1.0000   1.0000   1.0000   1.0000
     1.0000   1.0000   1.0000   1.0000   1.0000   1.0000   1.0000   1.0000
     1.0000   1.0000   1.0000   0.7592   0.0000   0.0000   0.0000   0.0000
     0.0000   0.0000   0.0000   0.0000

          k = 0.0000 0.6000 0.0000 (  2526 PWs)   bands (ev):

   -91.2429 -51.6347 -51.6343 -51.6343   5.4561   7.0797   7.4740   7.8408
     7.8408   8.2263   8.6370   9.6452   9.6452  10.0974  10.2607  10.5179
    10.6962  10.6962  10.9072  11.3889  15.2490  15.4746  15.4746  18.9879
    19.4844  25.1032  25.1032  26.1566

     occupation numbers 
     1.0000   1.0000   1.0000   1.0000   1.0000   1.0000   1.0000   1.0000
     1.0000   1.0000   1.0000   1.0000   1.0000   1.0000   1.0000   1.0000
     1.0000   1.0000   1.0000   0.9310   0.0000   0.0000   0.0000   0.0000
     0.0000   0.0000   0.0000   0.0000

          k =-0.1000 0.7000-0.1000 (  2532 PWs)   bands (ev):

   -91.2429 -51.6347 -51.6345 -51.6344   6.0633   6.9605   7.4466   7.8400
     7.8519   8.4428   8.6192   9.7102   9.7124   9.8716  10.2111  10.4264
    10.7245  10.8746  11.0375  11.4136  13.7380  14.7310  14.8850  19.1133
    19.8920  25.3351  25.4336  26.8754

     occupation numbers 
     1.0000   1.0000   1.0000   1.0000   1.0000   1.0000   1.0000   1.0000
     1.0000   1.0000   1.0000   1.0000   1.0000   1.0000   1.0000   1.0000
     1.0000   1.0000   1.0000   0.8337   0.0000   0.0000   0.0000   0.0000
     0.0000   0.0000   0.0000   0.0000

          k = 0.8000-0.2000 0.8000 (  2528 PWs)   bands (ev):

   -91.2429 -51.6347 -51.6344 -51.6344   6.6269   6.9630   7.4864   7.8034
     7.8159   8.6145   8.7218   9.4665   9.7598   9.8646  10.1139  10.3297
    10.6246  11.0582  11.3239  11.5024  12.3312  13.9027  14.8089  19.1739
    21.3091  24.9292  25.0223  26.9548

     occupation numbers 
     1.0000   1.0000   1.0000   1.0000   1.0000   1.0000   1.0000   1.0000
     1.0000   1.0000   1.0000   1.0000   1.0000   1.0000   1.0000   1.0000
     1.0000   1.0000   0.9977   0.1907   0.0000   0.0000   0.0000   0.0000
     0.0000   0.0000   0.0000   0.0000

          k = 0.7000-0.1000 0.7000 (  2543 PWs)   bands (ev):

   -91.2430 -51.6348 -51.6345 -51.6345   6.6794   7.2283   7.5846   7.7150
     7.7532   8.5792   8.9681   9.2656   9.7991   9.9408  10.0235  10.2110
    10.5549  11.0170  11.4366  11.4644  11.9636  13.2920  15.3205  19.2931
    23.1150  24.3809  24.4390  26.0260

     occupation numbers 
     1.0000   1.0000   1.0000   1.0000   1.0000   1.0000   1.0000   1.0000
     1.0000   1.0000   1.0000   1.0000   1.0000   1.0000   1.0000   1.0000
     1.0000   1.0000   0.6883   0.4656   0.0000   0.0000   0.0000   0.0000
     0.0000   0.0000   0.0000   0.0000

          k = 0.6000-0.0000 0.6000 (  2536 PWs)   bands (ev):

   -91.2429 -51.6347 -51.6345 -51.6344   6.3960   7.3083   7.6325   7.7048
     7.7813   8.3221   9.1947   9.2298   9.6642   9.9031  10.0054  10.1280
    10.5778  10.8749  11.2080  11.4815  12.7576  13.2770  16.2667  19.5002
    23.6074  23.8315  24.1631  25.4524

     occupation numbers 
     1.0000   1.0000   1.0000   1.0000   1.0000   1.0000   1.0000   1.0000
     1.0000   1.0000   1.0000   1.0000   1.0000   1.0000   1.0000   1.0000
     1.0000   1.0000   1.0000   0.3296   0.0000   0.0000   0.0000   0.0000
     0.0000   0.0000   0.0000   0.0000

          k = 0.0000 0.8000 0.0000 (  2518 PWs)   bands (ev):

   -91.2428 -51.6348 -51.6343 -51.6343   6.5952   6.8282   7.3576   7.8836
     7.8836   8.4120   8.6763   9.7285   9.7548   9.7548  10.2385  10.4706
    10.8050  11.1122  11.1122  11.4745  13.2338  14.0885  14.0885  18.9123
    19.2732  26.9105  26.9105  28.4258

     occupation numbers 
     1.0000   1.0000   1.0000   1.0000   1.0000   1.0000   1.0000   1.0000
     1.0000   1.0000   1.0000   1.0000   1.0000   1.0000   1.0000   1.0000
     1.0000   1.0000   1.0000   0.3836   0.0000   0.0000   0.0000   0.0000
     0.0000   0.0000   0.0000   0.0000

          k = 0.9000-0.1000 0.9000 (  2522 PWs)   bands (ev):

   -91.2428 -51.6348 -51.6344 -51.6343   6.7653   7.1439   7.3720   7.8099
     7.8737   8.3522   8.9013   9.3987   9.7791   9.8446  10.2035  10.4374
    10.6935  11.3294  11.4015  11.6648  12.4180  13.2907  13.8412  19.0458
    19.7555  26.7641  27.0200  28.5811

     occupation numbers 
     1.0000   1.0000   1.0000   1.0000   1.0000   1.0000   1.0000   1.0000
     1.0000   1.0000   1.0000   1.0000   1.0000   1.0000   1.0000   1.0000
     1.0000   0.9967   0.8889   0.0000   0.0000   0.0000   0.0000   0.0000
     0.0000   0.0000   0.0000   0.0000

          k = 0.8000 0.0000 0.8000 (  2530 PWs)   bands (ev):

   -91.2429 -51.6348 -51.6344 -51.6344   6.7699   7.3960   7.4458   7.6151
     7.8230   8.6362   8.9449   9.1499   9.8475   9.9447  10.1242  10.3706
    10.5519  11.3423  11.4947  11.7130  12.1540  12.4992  14.3335  19.1447
    21.2256  25.7138  26.2829  26.7491

     occupation numbers 
     1.0000   1.0000   1.0000   1.0000   1.0000   1.0000   1.0000   1.0000
     1.0000   1.0000   1.0000   1.0000   1.0000   1.0000   1.0000   1.0000
     1.0000   0.9929   0.2372   0.0000   0.0000   0.0000   0.0000   0.0000
     0.0000   0.0000   0.0000   0.0000

          k = 0.0000-1.0000 0.0000 (  2498 PWs)   bands (ev):

   -91.2426 -51.6348 -51.6342 -51.6342   6.7226   7.2489   7.6031   7.9009
     7.9009   7.9174   9.0447   9.3813   9.7583   9.7583  10.2333  10.4556
    10.7755  11.4901  11.4901  11.7537  12.1698  13.4119  13.4119  18.8962
    19.2213  28.4496  28.4786  28.4786

     occupation numbers 
     1.0000   1.0000   1.0000   1.0000   1.0000   1.0000   1.0000   1.0000
     1.0000   1.0000   1.0000   1.0000   1.0000   1.0000   1.0000   1.0000
     1.0000   0.2678   0.2678   0.0000   0.0000   0.0000   0.0000   0.0000
     0.0000   0.0000   0.0000   0.0000

          k =-0.2000 0.4000 0.0000 (  2552 PWs)   bands (ev):

   -91.2431 -51.6346 -51.6345 -51.6345   4.7015   7.4221   7.6265   7.7312
     7.7767   7.9156   8.8608   9.2680   9.3751  10.1852  10.2873  10.3716
    10.7131  10.7324  11.1181  11.3856  15.9735  16.3882  18.4790  20.2331
    20.7001  22.4880  23.0712  24.0651

     occupation numbers 
     1.0000   1.0000   1.0000   1.0000   1.0000   1.0000   1.0000   1.0000
     1.0000   1.0000   1.0000   1.0000   1.0000   1.0000   1.0000   1.0000
     1.0000   1.0000   1.0000   0.9396   0.0000   0.0000   0.0000   0.0000
     0.0000   0.0000   0.0000   0.0000

          k =-0.3000 0.5000-0.1000 (  2535 PWs)   bands (ev):

   -91.2430 -51.6346 -51.6344 -51.6344   5.3318   7.3318   7.6608   7.7156
     7.8133   8.0639   8.9123   9.3236   9.5242   9.9309  10.1618  10.2113
    10.7114  10.8386  11.0912  11.4068  14.0922  15.7137  17.5118  20.1762
    21.5287  22.3697  23.3107  24.5688

     occupation numbers 
     1.0000   1.0000   1.0000   1.0000   1.0000   1.0000   1.0000   1.0000
     1.0000   1.0000   1.0000   1.0000   1.0000   1.0000   1.0000   1.0000
     1.0000   1.0000   1.0000   0.8666   0.0000   0.0000   0.0000   0.0000
     0.0000   0.0000   0.0000   0.0000

          k = 0.6000-0.4000 0.8000 (  2523 PWs)   bands (ev):

   -91.2428 -51.6346 -51.6344 -51.6344   5.9897   7.2910   7.6706   7.7278
     7.8620   8.2024   8.9694   9.3364   9.5807   9.7318  10.0077  10.0934
    10.7146  10.9204  11.1826  11.4107  12.5542  15.4739  16.6753  20.0096
    21.6429  23.2582  23.8163  24.5194

     occupation numbers 
     1.0000   1.0000   1.0000   1.0000   1.0000   1.0000   1.0000   1.0000
     1.0000   1.0000   1.0000   1.0000   1.0000   1.0000   1.0000   1.0000
     1.0000   1.0000   1.0000   0.8486   0.0000   0.0000   0.0000   0.0000
     0.0000   0.0000   0.0000   0.0000

          k = 0.5000-0.3000 0.7000 (  2532 PWs)   bands (ev):

   -91.2429 -51.6348 -51.6345 -51.6344   6.2967   7.2909   7.6576   7.7829
     7.8620   8.2651   8.9838   9.3595   9.4683   9.7864   9.9063  10.0417
    10.7113  10.9666  11.2794  11.3932  11.9041  15.4740  16.2863  19.9523
    21.5870  23.5941  23.9296  25.7460

     occupation numbers 
     1.0000   1.0000   1.0000   1.0000   1.0000   1.0000   1.0000   1.0000
     1.0000   1.0000   1.0000   1.0000   1.0000   1.0000   1.0000   1.0000
     1.0000   1.0000   0.9999   0.9183   0.0000   0.0000   0.0000   0.0000
     0.0000   0.0000   0.0000   0.0000

          k =-0.2000 0.6000 0.0000 (  2546 PWs)   bands (ev):

   -91.2430 -51.6347 -51.6345 -51.6345   5.5882   7.1226   7.5438   7.7864
     7.8330   8.2313   8.7450   9.5796   9.6523   9.9309  10.2078  10.3437
    10.6783  10.8290  11.0079  11.3986  14.3926  14.9835  16.0780  19.7896
    20.2059  23.5645  24.8998  25.9403

     occupation numbers 
     1.0000   1.0000   1.0000   1.0000   1.0000   1.0000   1.0000   1.0000
     1.0000   1.0000   1.0000   1.0000   1.0000   1.0000   1.0000   1.0000
     1.0000   1.0000   1.0000   0.9001   0.0000   0.0000   0.0000   0.0000
     0.0000   0.0000   0.0000   0.0000

          k = 0.7000-0.3000 0.9000 (  2528 PWs)   bands (ev):

   -91.2429 -51.6347 -51.6344 -51.6344   6.2294   7.0526   7.5687   7.7462
     7.8553   8.4033   8.8338   9.6180   9.6470   9.7574  10.1171  10.2560
    10.6193  10.9899  11.1585  11.4369  12.9158  14.4067  15.3270  19.9336
    21.4438  23.0485  25.2817  26.2288

     occupation numbers 
     1.0000   1.0000   1.0000   1.0000   1.0000   1.0000   1.0000   1.0000
     1.0000   1.0000   1.0000   1.0000   1.0000   1.0000   1.0000   1.0000
     1.0000   1.0000   1.0000   0.6861   0.0000   0.0000   0.0000   0.0000
     0.0000   0.0000   0.0000   0.0000

          k = 0.6000-0.2000 0.8000 (  2527 PWs)   bands (ev):

   -91.2429 -51.6347 -51.6344 -51.6343   6.6101   7.1087   7.6202   7.6973
     7.8570   8.4745   9.0141   9.3590   9.6841   9.8183  10.0539  10.1525
    10.5549  11.0982  11.3428  11.5127  11.8658  14.0805  15.1191  20.0453
    22.4914  23.2833  25.0655  25.6749

     occupation numbers 
     1.0000   1.0000   1.0000   1.0000   1.0000   1.0000   1.0000   1.0000
     1.0000   1.0000   1.0000   1.0000   1.0000   1.0000   1.0000   1.0000
     1.0000   1.0000   0.9927   0.1380   0.0000   0.0000   0.0000   0.0000
     0.0000   0.0000   0.0000   0.0000

          k = 0.5000-0.1000 0.7000 (  2527 PWs)   bands (ev):

   -91.2429 -51.6347 -51.6344 -51.6343   6.4674   7.1940   7.6426   7.7064
     7.8324   8.3692   9.1160   9.3244   9.6334   9.8277  10.0618  10.1139
    10.5549  11.0147  11.2278  11.4805  12.3131  13.8120  15.6560  20.2975
    22.1418  23.6634  24.8919  25.2409

     occupation numbers 
     1.0000   1.0000   1.0000   1.0000   1.0000   1.0000   1.0000   1.0000
     1.0000   1.0000   1.0000   1.0000   1.0000   1.0000   1.0000   1.0000
     1.0000   1.0000   1.0000   0.3369   0.0000   0.0000   0.0000   0.0000
     0.0000   0.0000   0.0000   0.0000

          k = 0.4000 0.0000 0.6000 (  2530 PWs)   bands (ev):

   -91.2429 -51.6346 -51.6344 -51.6344   5.9439   7.2345   7.6577   7.7234
     7.8237   8.1941   9.0053   9.3998   9.6577   9.7622  10.1150  10.1494
    10.6260  10.9864  11.0298  11.4502  13.4611  14.1036  16.5470  20.6545
    21.5674  22.5418  24.2448  25.6755

     occupation numbers 
     1.0000   1.0000   1.0000   1.0000   1.0000   1.0000   1.0000   1.0000
     1.0000   1.0000   1.0000   1.0000   1.0000   1.0000   1.0000   1.0000
     1.0000   1.0000   1.0000   0.5825   0.0000   0.0000   0.0000   0.0000
     0.0000   0.0000   0.0000   0.0000

          k = 0.8000-0.2000 1.0000 (  2531 PWs)   bands (ev):

   -91.2429 -51.6347 -51.6345 -51.6344   6.6446   6.8727   7.4211   7.7907
     7.8932   8.5850   8.6589   9.5507   9.7602   9.8508  10.1830  10.4006
    10.6250  11.1387  11.2296  11.5050  12.9584  13.7800  14.2083  19.6020
    19.9791  24.8985  26.7435  27.8525

     occupation numbers 
     1.0000   1.0000   1.0000   1.0000   1.0000   1.0000   1.0000   1.0000
     1.0000   1.0000   1.0000   1.0000   1.0000   1.0000   1.0000   1.0000
     1.0000   1.0000   1.0000   0.1763   0.0000   0.0000   0.0000   0.0000
     0.0000   0.0000   0.0000   0.0000

          k = 0.7000-0.1000 0.9000 (  2531 PWs)   bands (ev):

   -91.2429 -51.6348 -51.6344 -51.6344   6.8248   7.1255   7.4619   7.6792
     7.8950   8.7289   8.8002   9.2796   9.7885   9.9491  10.1268  10.3073
    10.4944  11.2577  11.4772  11.7660  12.0587  13.0510  14.0396  19.8387
    21.3163  24.2626  26.0025  26.9532

     occupation numbers 
     1.0000   1.0000   1.0000   1.0000   1.0000   1.0000   1.0000   1.0000
     1.0000   1.0000   1.0000   1.0000   1.0000   1.0000   1.0000   1.0000
     1.0000   1.0000   0.3625   0.0000   0.0000   0.0000   0.0000   0.0000
     0.0000   0.0000   0.0000   0.0000

          k = 0.6000 0.0000 0.8000 (  2540 PWs)   bands (ev):

   -91.2430 -51.6348 -51.6345 -51.6344   6.7666   7.2145   7.5626   7.6388
     7.8533   8.6342   9.0300   9.2105   9.8230   9.9064  10.1062  10.1820
    10.4550  11.1741  11.4062  11.5504  12.3671  12.6249  14.6802  20.0480
    23.1889  23.4804  24.3790  26.1186

     occupation numbers 
     1.0000   1.0000   1.0000   1.0000   1.0000   1.0000   1.0000   1.0000
     1.0000   1.0000   1.0000   1.0000   1.0000   1.0000   1.0000   1.0000
     1.0000   1.0000   0.8694   0.0305   0.0000   0.0000   0.0000   0.0000
     0.0000   0.0000   0.0000   0.0000

          k =-0.2000-1.0000 0.0000 (  2522 PWs)   bands (ev):

   -91.2428 -51.6349 -51.6343 -51.6343   6.7689   7.3318   7.4877   7.6079
     7.9176   8.4020   9.1029   9.1412   9.7591   9.9309  10.1820  10.4111
    10.5926  11.3857  11.5405  11.9402  12.0324  13.1837  13.3420  19.5532
    19.9200  25.9480  27.0662  28.1196

     occupation numbers 
     1.0000   1.0000   1.0000   1.0000   1.0000   1.0000   1.0000   1.0000
     1.0000   1.0000   1.0000   1.0000   1.0000   1.0000   1.0000   1.0000
     1.0000   0.9393   0.0477   0.0000   0.0000   0.0000   0.0000   0.0000
     0.0000   0.0000   0.0000   0.0000

          k = 0.6000-0.2000 1.0000 (  2525 PWs)   bands (ev):

   -91.2428 -51.6347 -51.6344 -51.6343   6.7293   7.0051   7.5580   7.6820
     7.9050   8.5629   8.9447   9.3993   9.7654   9.7871  10.1164  10.2275
    10.4756  11.1716  11.3239  11.5567  12.5467  13.1819  14.4659  21.2680
    21.4955  22.6128  25.4908  26.3743

     occupation numbers 
     1.0000   1.0000   1.0000   1.0000   1.0000   1.0000   1.0000   1.0000
     1.0000   1.0000   1.0000   1.0000   1.0000   1.0000   1.0000   1.0000
     1.0000   1.0000   0.9977   0.0225   0.0000   0.0000   0.0000   0.0000
     0.0000   0.0000   0.0000   0.0000

          k = 0.5000-0.1000 0.9000 (  2530 PWs)   bands (ev):

   -91.2429 -51.6348 -51.6345 -51.6344   6.8955   7.0471   7.5580   7.6403
     7.9295   8.6482   9.0823   9.2236   9.7914   9.8518  10.1024  10.1712
    10.4324  11.2347  11.5160  11.7476  11.9534  13.0285  13.9977  21.4060
    22.0804  23.5091  23.5361  26.8253

     occupation numbers 
     1.0000   1.0000   1.0000   1.0000   1.0000   1.0000   1.0000   1.0000
     1.0000   1.0000   1.0000   1.0000   1.0000   1.0000   1.0000   1.0000
     1.0000   1.0000   0.1232   0.0000   0.0000   0.0000   0.0000   0.0000
     0.0000   0.0000   0.0000   0.0000

          k =-0.4000-1.0000 0.0000 (  2528 PWs)   bands (ev):

   -91.2429 -51.6348 -51.6344 -51.6344   6.9103   7.1515   7.4916   7.6159
     7.9555   8.8327   8.9068   9.1828   9.7629  10.0549  10.0848  10.1482
    10.4399  11.2947  11.6215  11.8016  12.2928  12.7315  13.2617  21.1997
    21.6942  23.4139  24.2337  27.7302

     occupation numbers 
     1.0000   1.0000   1.0000   1.0000   1.0000   1.0000   1.0000   1.0000
     1.0000   1.0000   1.0000   1.0000   1.0000   1.0000   1.0000   1.0000
     1.0000   0.9997   0.0004   0.0000   0.0000   0.0000   0.0000   0.0000
     0.0000   0.0000   0.0000   0.0000

     the Fermi energy is    11.4603 ev
     (compare with:    11.4615 eV, computed in scf)

     Writing output data file ././cunipt.save/

     init_run     :      1.07s CPU      1.14s WALL (       1 calls)
     electrons    :     88.64s CPU     88.76s WALL (       1 calls)

     Called by init_run:
     wfcinit      :      0.00s CPU      0.00s WALL (       1 calls)
     wfcinit:atom :      0.03s CPU      0.03s WALL (      47 calls)
     wfcinit:wfcr :      2.20s CPU      2.21s WALL (      47 calls)
     potinit      :      0.33s CPU      0.35s WALL (       1 calls)
     hinit0       :      0.67s CPU      0.67s WALL (       1 calls)

     Called by electrons:
     c_bands      :     88.64s CPU     88.76s WALL (       1 calls)
     v_of_rho     :      0.02s CPU      0.02s WALL (       1 calls)
     v_h          :      0.00s CPU      0.00s WALL (       1 calls)
     v_xc         :      0.02s CPU      0.02s WALL (       1 calls)
     newd         :      0.05s CPU      0.09s WALL (       1 calls)
     PAW_pot      :      0.31s CPU      0.33s WALL (       1 calls)

     Called by c_bands:
     init_us_2    :      0.03s CPU      0.04s WALL (      47 calls)
     cegterg      :     86.03s CPU     86.13s WALL (     122 calls)

     Called by sum_band:

     Called by *egterg:
     cdiaghg      :      2.00s CPU      2.00s WALL (    2116 calls)
     cegterg:over :     10.09s CPU     10.10s WALL (    2069 calls)
     cegterg:upda :      6.21s CPU      6.21s WALL (    2069 calls)
     cegterg:last :     17.44s CPU     17.45s WALL (    1228 calls)
     h_psi        :     44.27s CPU     44.34s WALL (    2238 calls)
     s_psi        :      6.47s CPU      6.47s WALL (    2238 calls)
     g_psi        :      0.38s CPU      0.38s WALL (    2069 calls)

     Called by h_psi:
     h_psi:calbec :      5.97s CPU      5.97s WALL (    2238 calls)
     vloc_psi     :     31.69s CPU     31.75s WALL (    2238 calls)
     add_vuspsi   :      6.50s CPU      6.50s WALL (    2238 calls)

     General routines
     calbec       :      5.97s CPU      5.97s WALL (    2238 calls)
     fft          :      0.01s CPU      0.01s WALL (      12 calls)
     fftw         :     27.91s CPU     27.97s WALL (   72076 calls)
     davcio       :      0.02s CPU      0.03s WALL (      94 calls)

     Parallel routines

     PAW routines
     PAW_pot      :      0.31s CPU      0.33s WALL (       1 calls)

     PWSCF        :   1m30.01s CPU   1m30.23s WALL


   This run was terminated on:  22:47:26  13Sep2024            

=------------------------------------------------------------------------------=
   JOB DONE.
=------------------------------------------------------------------------------=
