
     Program PWSCF v.6.7MaX starts on 13Sep2024 at 20:39:21 

     This program is part of the open-source Quantum ESPRESSO suite
     for quantum simulation of materials; please cite
         "P. Giannozzi et al., J. Phys.:Condens. Matter 21 395502 (2009);
         "P. Giannozzi et al., J. Phys.:Condens. Matter 29 465901 (2017);
          URL http://www.quantum-espresso.org", 
     in publications or presentations arising from this work. More details at
     http://www.quantum-espresso.org/quote

     Parallel version (MPI), running on     1 processors

     MPI processes distributed on     1 nodes
     Waiting for input...
     Reading input from standard input

     Current dimensions of program PWSCF are:
     Max number of different atomic species (ntypx) = 10
     Max number of k-points (npk) =  40000
     Max angular momentum in pseudopotentials (lmaxx) =  3
     file Cu.upf: wavefunction(s)  4S 3D renormalized
     file Ni.upf: wavefunction(s)  3P 3D renormalized
     file Pt.upf: wavefunction(s)  6S 5D renormalized

     Subspace diagonalization in iterative solution of the eigenvalue problem:
     a serial algorithm will be used


     G-vector sticks info
     --------------------
     sticks:   dense  smooth     PW     G-vecs:    dense   smooth      PW
     Sum         955     955    295                19795    19795    3287



     bravais-lattice index     =            2
     lattice parameter (alat)  =      10.8000  a.u.
     unit-cell volume          =     314.9280 (a.u.)^3
     number of atoms/cell      =            3
     number of atomic types    =            3
     number of electrons       =        39.00
     number of Kohn-Sham states=           28
     kinetic-energy cutoff     =      60.0000  Ry
     charge density cutoff     =     240.0000  Ry
     scf convergence threshold =      1.0E-07
     mixing beta               =       0.7000
     number of iterations used =            8  plain     mixing
     Exchange-correlation= SLA  PW   PBX  PBC
                           (   1   4   3   4   0   0   0)

     celldm(1)=  10.800000  celldm(2)=   0.000000  celldm(3)=   0.000000
     celldm(4)=   0.000000  celldm(5)=   0.000000  celldm(6)=   0.000000

     crystal axes: (cart. coord. in units of alat)
               a(1) = (  -0.500000   0.000000   0.500000 )  
               a(2) = (   0.000000   0.500000   0.500000 )  
               a(3) = (  -0.500000   0.500000   0.000000 )  

     reciprocal axes: (cart. coord. in units 2 pi/alat)
               b(1) = ( -1.000000 -1.000000  1.000000 )  
               b(2) = (  1.000000  1.000000  1.000000 )  
               b(3) = ( -1.000000  1.000000 -1.000000 )  


     PseudoPot. # 1 for Cu read from file:
     ././Cu.upf
     MD5 check sum: cfffd1f38ee05704b3e17f46f1730a6f
     Pseudo is Projector augmented-wave + core cor, Zval = 11.0
     Generated using &quot;atomic&quot; code by A. Dal Corso  v.6.3
     Shape of augmentation charge: PSQ
     Using radial grid of 1199 points,  6 beta functions with: 
                l(1) =   0
                l(2) =   0
                l(3) =   1
                l(4) =   1
                l(5) =   2
                l(6) =   2
     Q(r) pseudized with 0 coefficients 


     PseudoPot. # 2 for Ni read from file:
     ././Ni.upf
     MD5 check sum: 6e86b733589c3ad8389697b807d86aa7
     Pseudo is Projector augmented-wave + core cor, Zval = 18.0
     Generated using &quot;atomic&quot; code by A. Dal Corso  v.6.3
     Shape of augmentation charge: PSQ
     Using radial grid of 1195 points,  6 beta functions with: 
                l(1) =   0
                l(2) =   0
                l(3) =   1
                l(4) =   1
                l(5) =   2
                l(6) =   2
     Q(r) pseudized with 0 coefficients 


     PseudoPot. # 3 for Pt read from file:
     ././Pt.upf
     MD5 check sum: c5224e9cd7a5e36e81f2def9f50bb494
     Pseudo is Projector augmented-wave + core cor, Zval = 10.0
     Generated using &quot;atomic&quot; code by A. Dal Corso  v.6.3
     Shape of augmentation charge: PSQ
     Using radial grid of 1277 points,  6 beta functions with: 
                l(1) =   0
                l(2) =   0
                l(3) =   1
                l(4) =   1
                l(5) =   2
                l(6) =   2
     Q(r) pseudized with 0 coefficients 


     atomic species   valence    mass     pseudopotential
        Cu            11.00    63.54600     Cu( 1.00)
        Ni            18.00    58.69300     Ni( 1.00)
        Pt            10.00   195.08000     Pt( 1.00)

     24 Sym. Ops. (no inversion) found



   Cartesian axes

     site n.     atom                  positions (alat units)
         1           Cu  tau(   1) = (   0.0000000   0.0000000   0.0000000  )
         2           Ni  tau(   2) = (   0.5000000   0.5000000   0.5000000  )
         3           Pt  tau(   3) = (   0.2500000   0.2500000   0.2500000  )

     number of k points=    47  Gaussian smearing, width (Ry)=  0.0100
                       cart. coord. in units 2pi/alat
        k(    1) = (   0.0000000   0.0000000   0.0000000), wk =   0.0020000
        k(    2) = (  -0.1000000   0.1000000  -0.1000000), wk =   0.0160000
        k(    3) = (  -0.2000000   0.2000000  -0.2000000), wk =   0.0160000
        k(    4) = (  -0.3000000   0.3000000  -0.3000000), wk =   0.0160000
        k(    5) = (  -0.4000000   0.4000000  -0.4000000), wk =   0.0160000
        k(    6) = (   0.5000000  -0.5000000   0.5000000), wk =   0.0080000
        k(    7) = (   0.0000000   0.2000000   0.0000000), wk =   0.0120000
        k(    8) = (  -0.1000000   0.3000000  -0.1000000), wk =   0.0480000
        k(    9) = (  -0.2000000   0.4000000  -0.2000000), wk =   0.0480000
        k(   10) = (  -0.3000000   0.5000000  -0.3000000), wk =   0.0480000
        k(   11) = (   0.6000000  -0.4000000   0.6000000), wk =   0.0480000
        k(   12) = (   0.5000000  -0.3000000   0.5000000), wk =   0.0480000
        k(   13) = (   0.4000000  -0.2000000   0.4000000), wk =   0.0480000
        k(   14) = (   0.3000000  -0.1000000   0.3000000), wk =   0.0480000
        k(   15) = (   0.2000000   0.0000000   0.2000000), wk =   0.0240000
        k(   16) = (   0.0000000   0.4000000   0.0000000), wk =   0.0120000
        k(   17) = (  -0.1000000   0.5000000  -0.1000000), wk =   0.0480000
        k(   18) = (  -0.2000000   0.6000000  -0.2000000), wk =   0.0480000
        k(   19) = (   0.7000000  -0.3000000   0.7000000), wk =   0.0480000
        k(   20) = (   0.6000000  -0.2000000   0.6000000), wk =   0.0480000
        k(   21) = (   0.5000000  -0.1000000   0.5000000), wk =   0.0480000
        k(   22) = (   0.4000000   0.0000000   0.4000000), wk =   0.0240000
        k(   23) = (   0.0000000   0.6000000   0.0000000), wk =   0.0120000
        k(   24) = (  -0.1000000   0.7000000  -0.1000000), wk =   0.0480000
        k(   25) = (   0.8000000  -0.2000000   0.8000000), wk =   0.0480000
        k(   26) = (   0.7000000  -0.1000000   0.7000000), wk =   0.0480000
        k(   27) = (   0.6000000  -0.0000000   0.6000000), wk =   0.0240000
        k(   28) = (   0.0000000   0.8000000   0.0000000), wk =   0.0120000
        k(   29) = (   0.9000000  -0.1000000   0.9000000), wk =   0.0480000
        k(   30) = (   0.8000000   0.0000000   0.8000000), wk =   0.0240000
        k(   31) = (   0.0000000  -1.0000000   0.0000000), wk =   0.0060000
        k(   32) = (  -0.2000000   0.4000000   0.0000000), wk =   0.0480000
        k(   33) = (  -0.3000000   0.5000000  -0.1000000), wk =   0.0960000
        k(   34) = (   0.6000000  -0.4000000   0.8000000), wk =   0.0960000
        k(   35) = (   0.5000000  -0.3000000   0.7000000), wk =   0.0480000
        k(   36) = (  -0.2000000   0.6000000   0.0000000), wk =   0.0480000
        k(   37) = (   0.7000000  -0.3000000   0.9000000), wk =   0.0960000
        k(   38) = (   0.6000000  -0.2000000   0.8000000), wk =   0.0960000
        k(   39) = (   0.5000000  -0.1000000   0.7000000), wk =   0.0960000
        k(   40) = (   0.4000000   0.0000000   0.6000000), wk =   0.0480000
        k(   41) = (   0.8000000  -0.2000000   1.0000000), wk =   0.0480000
        k(   42) = (   0.7000000  -0.1000000   0.9000000), wk =   0.0960000
        k(   43) = (   0.6000000   0.0000000   0.8000000), wk =   0.0480000
        k(   44) = (  -0.2000000  -1.0000000   0.0000000), wk =   0.0240000
        k(   45) = (   0.6000000  -0.2000000   1.0000000), wk =   0.0480000
        k(   46) = (   0.5000000  -0.1000000   0.9000000), wk =   0.0480000
        k(   47) = (  -0.4000000  -1.0000000   0.0000000), wk =   0.0240000

     Dense  grid:    19795 G-vectors     FFT dimensions: (  40,  40,  40)

     Estimated max dynamical RAM per process >     126.78 MB

     Check: negative core charge=   -0.000002

     Initial potential from superposition of free atoms

     starting charge   38.99935, renormalised to   39.00000
     Starting wfcs are   28 randomized atomic wfcs
     Checking if some PAW data can be deallocated... 

     total cpu time spent up to now is        3.6 secs

     Self-consistent Calculation

     iteration #  1     ecut=    60.00 Ry     beta= 0.70
     Davidson diagonalization with overlap
     ethr =  1.00E-02,  avg # of iterations =  6.0

     total cpu time spent up to now is       13.3 secs

     total energy              =   -1387.98708057 Ry
     estimated scf accuracy    <       1.88796308 Ry

     iteration #  2     ecut=    60.00 Ry     beta= 0.70
     Davidson diagonalization with overlap
     ethr =  4.84E-03,  avg # of iterations =  3.2

     total cpu time spent up to now is       23.8 secs

     total energy              =   -1385.87913874 Ry
     estimated scf accuracy    <      53.19494756 Ry

     iteration #  3     ecut=    60.00 Ry     beta= 0.70
     Davidson diagonalization with overlap
     ethr =  4.84E-03,  avg # of iterations =  4.0

     total cpu time spent up to now is       33.3 secs

     total energy              =   -1389.40491231 Ry
     estimated scf accuracy    <       0.62969572 Ry

     iteration #  4     ecut=    60.00 Ry     beta= 0.70
     Davidson diagonalization with overlap
     ethr =  1.61E-03,  avg # of iterations =  2.0

     total cpu time spent up to now is       40.5 secs

     total energy              =   -1389.45245736 Ry
     estimated scf accuracy    <       0.10053976 Ry

     iteration #  5     ecut=    60.00 Ry     beta= 0.70
     Davidson diagonalization with overlap
     ethr =  2.58E-04,  avg # of iterations =  1.6

     total cpu time spent up to now is       47.3 secs

     total energy              =   -1389.45320442 Ry
     estimated scf accuracy    <       0.03153386 Ry

     iteration #  6     ecut=    60.00 Ry     beta= 0.70
     Davidson diagonalization with overlap
     ethr =  8.09E-05,  avg # of iterations =  2.1

     total cpu time spent up to now is       54.6 secs

     total energy              =   -1389.45753348 Ry
     estimated scf accuracy    <       0.01503632 Ry

     iteration #  7     ecut=    60.00 Ry     beta= 0.70
     Davidson diagonalization with overlap
     ethr =  3.86E-05,  avg # of iterations =  1.7

     total cpu time spent up to now is       61.2 secs

     total energy              =   -1389.45935417 Ry
     estimated scf accuracy    <       0.00400600 Ry

     iteration #  8     ecut=    60.00 Ry     beta= 0.70
     Davidson diagonalization with overlap
     ethr =  1.03E-05,  avg # of iterations =  3.6

     total cpu time spent up to now is       68.6 secs

     total energy              =   -1389.45982567 Ry
     estimated scf accuracy    <       0.00018303 Ry

     iteration #  9     ecut=    60.00 Ry     beta= 0.70
     Davidson diagonalization with overlap
     ethr =  4.69E-07,  avg # of iterations =  5.6

     total cpu time spent up to now is       79.8 secs

     total energy              =   -1389.45994419 Ry
     estimated scf accuracy    <       0.00002451 Ry

     iteration # 10     ecut=    60.00 Ry     beta= 0.70
     Davidson diagonalization with overlap
     ethr =  6.28E-08,  avg # of iterations =  1.6

     total cpu time spent up to now is       86.6 secs

     total energy              =   -1389.45994734 Ry
     estimated scf accuracy    <       0.00002409 Ry

     iteration # 11     ecut=    60.00 Ry     beta= 0.70
     Davidson diagonalization with overlap
     ethr =  6.18E-08,  avg # of iterations =  1.3

     total cpu time spent up to now is       93.3 secs

     total energy              =   -1389.46000734 Ry
     estimated scf accuracy    <       0.00004007 Ry

     iteration # 12     ecut=    60.00 Ry     beta= 0.70
     Davidson diagonalization with overlap
     ethr =  6.18E-08,  avg # of iterations =  3.7

     total cpu time spent up to now is      102.6 secs

     total energy              =   -1389.45989128 Ry
     estimated scf accuracy    <       0.00030279 Ry

     iteration # 13     ecut=    60.00 Ry     beta= 0.70
     Davidson diagonalization with overlap
     ethr =  6.18E-08,  avg # of iterations =  4.1

     total cpu time spent up to now is      113.2 secs

     total energy              =   -1389.45993971 Ry
     estimated scf accuracy    <       0.00000486 Ry

     iteration # 14     ecut=    60.00 Ry     beta= 0.70
     Davidson diagonalization with overlap
     ethr =  1.25E-08,  avg # of iterations =  1.1

     total cpu time spent up to now is      119.7 secs

     total energy              =   -1389.45994012 Ry
     estimated scf accuracy    <       0.00000018 Ry

     iteration # 15     ecut=    60.00 Ry     beta= 0.70
     Davidson diagonalization with overlap
     ethr =  4.69E-10,  avg # of iterations =  4.4

     total cpu time spent up to now is      128.4 secs

     total energy              =   -1389.45994011 Ry
     estimated scf accuracy    <       0.00000011 Ry

     iteration # 16     ecut=    60.00 Ry     beta= 0.70
     Davidson diagonalization with overlap
     ethr =  2.93E-10,  avg # of iterations =  2.0

     total cpu time spent up to now is      135.7 secs

     End of self-consistent calculation

          k = 0.0000 0.0000 0.0000 (  2445 PWs)   bands (ev):

   -90.8497 -51.2418 -51.2418 -51.2418   3.9983   7.8434   7.8434   8.0539
     8.0539   8.0539   9.3452   9.3452   9.3452  10.8311  10.8311  11.1803
    11.1803  11.1803  11.7359  11.7359  20.6836  21.7628  21.7628  21.7628
    21.8246  21.8246  21.8246  22.6761

          k =-0.1000 0.1000-0.1000 (  2499 PWs)   bands (ev):

   -90.8502 -51.2423 -51.2421 -51.2421   4.1506   7.8725   7.8725   8.0184
     8.0551   8.0551   9.3609   9.3781   9.3781  10.8089  10.8089  11.0673
    11.1660  11.1660  11.7318  11.7318  19.1076  20.7393  20.7393  20.8704
    22.4473  22.7400  22.7401  23.0668

          k =-0.2000 0.2000-0.2000 (  2490 PWs)   bands (ev):

   -90.8501 -51.2423 -51.2421 -51.2421   4.5917   7.9204   7.9204   7.9505
     8.0947   8.0947   9.3589   9.4673   9.4673  10.7053  10.7053  10.7980
    11.1582  11.1582  11.7316  11.7316  16.6833  19.7670  19.7670  20.7948
    22.3983  22.5606  22.5607  23.7170

          k =-0.3000 0.3000-0.3000 (  2472 PWs)   bands (ev):

   -90.8499 -51.2424 -51.2421 -51.2421   5.2542   7.9191   7.9191   7.9265
     8.2257   8.2257   9.2288   9.5884   9.5884  10.4954  10.4954  10.5393
    11.1981  11.1981  11.7447  11.7447  14.5837  18.9473  18.9473  20.6099
    22.2705  22.2732  22.2732  25.1326

          k =-0.4000 0.4000-0.4000 (  2473 PWs)   bands (ev):

   -90.8499 -51.2425 -51.2422 -51.2422   5.9551   7.9003   7.9003   8.0221
     8.3756   8.3756   8.9106   9.7123   9.7123  10.2542  10.2542  10.4090
    11.2563  11.2563  11.7613  11.7613  13.0506  18.3864  18.3864  20.4475
    22.0810  22.0810  22.1827  26.8955

          k = 0.5000-0.5000 0.5000 (  2488 PWs)   bands (ev):

   -90.8500 -51.2427 -51.2423 -51.2423   6.2902   7.8918   7.8918   8.2077
     8.4434   8.4434   8.6059   9.7848   9.7848  10.1253  10.1253  10.3770
    11.2834  11.2834  11.7687  11.7687  12.4589  18.1851  18.1851  20.3868
    22.0151  22.0151  22.1517  27.6155

          k = 0.0000 0.2000 0.0000 (  2489 PWs)   bands (ev):

   -90.8501 -51.2424 -51.2420 -51.2420   4.2023   7.8373   7.9258   7.9775
     8.0665   8.0665   9.2662   9.4456   9.4456  10.8024  10.8070  11.1042
    11.1314  11.1314  11.6692  11.7740  19.6724  19.6724  20.2063  20.4868
    21.7961  22.7648  23.3163  23.3164

          k =-0.1000 0.3000-0.1000 (  2485 PWs)   bands (ev):

   -90.8500 -51.2423 -51.2421 -51.2421   4.5500   7.8200   7.9253   7.9967
     8.0752   8.1121   9.2348   9.5401   9.5659  10.7256  10.7432  10.9031
    11.1082  11.1465  11.6175  11.7924  17.4449  18.7236  19.6775  20.6551
    21.5587  22.8783  23.4980  23.5597

          k =-0.2000 0.4000-0.2000 (  2487 PWs)   bands (ev):

   -90.8500 -51.2425 -51.2422 -51.2422   5.1467   7.7595   7.9558   7.9888
     8.1134   8.2632   9.2496   9.5878   9.7064  10.5035  10.6010  10.6447
    11.1630  11.1755  11.6117  11.8042  15.2256  17.9973  18.7955  20.3541
    22.6757  22.8842  23.3320  23.4221

          k =-0.3000 0.5000-0.3000 (  2476 PWs)   bands (ev):

   -90.8499 -51.2425 -51.2422 -51.2422   5.8598   7.7262   7.9568   8.0156
     8.2057   8.4241   9.1809   9.6222   9.8287  10.2267  10.3963  10.4801
    11.2284  11.2306  11.6668  11.8018  13.4587  17.5962  17.9269  20.1779
    22.7276  22.9955  23.1232  24.5607

          k = 0.6000-0.4000 0.6000 (  2466 PWs)   bands (ev):

   -90.8498 -51.2425 -51.2422 -51.2421   6.3601   7.7452   7.9291   8.1446
     8.2417   8.4983   9.0176   9.7315   9.8255  10.1118  10.2211  10.4012
    11.2414  11.2938  11.7572  11.7641  12.4879  17.2946  17.6146  20.1593
    22.5364  22.6522  23.2742  26.3561

          k = 0.5000-0.3000 0.5000 (  2467 PWs)   bands (ev):

   -90.8498 -51.2425 -51.2421 -51.2421   6.2411   7.7800   7.9171   8.0822
     8.2950   8.4224   9.0819   9.6785   9.8410  10.1370  10.2602  10.4096
    11.2091  11.3104  11.6817  11.8183  12.7115  17.0292  18.0829  20.2958
    22.3235  22.3838  23.6127  26.6643

          k = 0.4000-0.2000 0.4000 (  2471 PWs)   bands (ev):

   -90.8499 -51.2424 -51.2421 -51.2421   5.6177   7.8041   7.9218   7.9917
     8.2497   8.2754   9.2790   9.5484   9.7812  10.3096  10.4776  10.4974
    11.1715  11.2567  11.6162  11.8295  14.0037  17.1656  18.9409  20.5999
    22.1659  22.2292  23.9471  24.9199

          k = 0.3000-0.1000 0.3000 (  2487 PWs)   bands (ev):

   -90.8500 -51.2424 -51.2421 -51.2421   4.9213   7.8560   7.9247   7.9789
     8.0941   8.1761   9.3618   9.4427   9.6576  10.5722  10.6677  10.6887
    11.1568  11.1651  11.6158  11.8093  15.9487  17.6375  20.0709  21.0825
    22.0104  22.1852  23.4043  23.8353

          k = 0.2000 0.0000 0.2000 (  2481 PWs)   bands (ev):

   -90.8500 -51.2423 -51.2420 -51.2420   4.4007   7.8878   7.9195   7.9684
     8.0457   8.0939   9.3505   9.3790   9.5181  10.7489  10.7730  10.9336
    11.1248  11.1671  11.6651  11.7771  18.1916  18.4070  21.2326  21.4281
    21.8854  22.0250  22.7915  22.9329

          k = 0.0000 0.4000 0.0000 (  2501 PWs)   bands (ev):

   -90.8502 -51.2425 -51.2422 -51.2422   4.8023   7.6832   7.8645   8.1022
     8.1022   8.1657   9.1109   9.7178   9.7178  10.7150  10.7184  11.0031
    11.0387  11.0387  11.4986  11.8094  17.7046  17.7046  18.2352  19.8313
    20.5500  24.2591  24.2591  24.5890

          k =-0.1000 0.5000-0.1000 (  2484 PWs)   bands (ev):

   -90.8500 -51.2425 -51.2422 -51.2421   5.3177   7.5523   7.8534   8.0929
     8.1194   8.3596   9.0926   9.8439   9.8766  10.5288  10.6489  10.8048
    11.0874  11.1248  11.4466  11.8154  15.8046  16.9008  17.4139  19.9383
    20.8216  24.4325  24.6055  25.2472

          k =-0.2000 0.6000-0.2000 (  2459 PWs)   bands (ev):

   -90.8498 -51.2424 -51.2421 -51.2421   5.9973   7.4654   7.8958   8.0585
     8.1396   8.5581   9.1619   9.8807  10.0084  10.2033  10.5042  10.6392
    11.1520  11.2205  11.5494  11.8168  13.9049  16.4475  16.5143  19.8958
    22.1962  24.2078  24.4352  25.3155

          k = 0.7000-0.3000 0.7000 (  2469 PWs)   bands (ev):

   -90.8498 -51.2425 -51.2422 -51.2421   6.5764   7.4714   7.9730   8.0168
     8.1580   8.6697   9.2775   9.8706   9.8824  10.1302  10.3733  10.5132
    11.1275  11.3290  11.7408  11.7998  12.5832  15.7431  16.4683  19.9266
    23.7419  23.9380  24.0198  25.6176

          k = 0.6000-0.2000 0.6000 (  2484 PWs)   bands (ev):

   -90.8500 -51.2426 -51.2422 -51.2422   6.6334   7.5915   7.9828   8.0302
     8.1440   8.5954   9.4248   9.6798   9.8920  10.2459  10.2691  10.4539
    11.0905  11.3412  11.6823  11.8583  12.4715  15.2681  16.9980  20.0738
    23.4033  23.5814  25.1421  26.5671

          k = 0.5000-0.1000 0.5000 (  2464 PWs)   bands (ev):

   -90.8498 -51.2424 -51.2421 -51.2421   6.1593   7.6714   7.9643   7.9823
     8.2096   8.3823   9.4933   9.5663   9.9777  10.1462  10.4379  10.4854
    11.0838  11.3451  11.4943  11.8848  13.5567  15.2087  17.9343  20.3497
    23.1057  23.2025  24.5554  25.4618

          k = 0.4000 0.0000 0.4000 (  2485 PWs)   bands (ev):

   -90.8500 -51.2425 -51.2422 -51.2422   5.4892   7.7479   7.9536   7.9836
     8.1812   8.2232   9.4466   9.4841   9.8502  10.3398  10.5727  10.5838
    11.1165  11.2607  11.4920  11.8598  15.1244  15.7276  19.0920  20.7522
    22.6891  22.7948  23.4665  24.1989

          k = 0.0000 0.6000 0.0000 (  2469 PWs)   bands (ev):

   -90.8499 -51.2425 -51.2421 -51.2421   5.7495   7.3703   7.7580   8.1516
     8.1516   8.5407   8.9794  10.0234  10.0234  10.4924  10.6507  10.9329
    11.0924  11.0924  11.3170  11.8207  15.7734  15.9584  15.9584  19.6294
    20.0160  25.7062  25.7062  26.8505

          k =-0.1000 0.7000-0.1000 (  2456 PWs)   bands (ev):

   -90.8497 -51.2425 -51.2421 -51.2420   6.3671   7.2482   7.7293   8.1502
     8.1642   8.7659   8.9626  10.0888  10.0919  10.2554  10.6005  10.8334
    11.1252  11.2820  11.4525  11.8460  14.2154  15.2198  15.3516  19.7244
    20.4616  25.9650  26.0603  27.5792

          k = 0.8000-0.2000 0.8000 (  2460 PWs)   bands (ev):

   -90.8498 -51.2425 -51.2421 -51.2421   6.9322   7.2550   7.7700   8.1120
     8.1340   8.9442   9.0685   9.8324  10.1377  10.2474  10.5007  10.7329
    11.0242  11.4727  11.7537  11.9358  12.7778  14.3837  15.2701  19.7673
    21.9076  25.5763  25.6555  27.6394

          k = 0.7000-0.1000 0.7000 (  2469 PWs)   bands (ev):

   -90.8498 -51.2426 -51.2422 -51.2420   6.9748   7.5304   7.8719   8.0374
     8.0599   8.9049   9.3221   9.6283  10.1759  10.3206  10.4076  10.6084
    10.9565  11.4288  11.8619  11.9015  12.4119  13.7651  15.7940  19.8793
    23.7348  25.0083  25.0866  26.6824

          k = 0.6000-0.0000 0.6000 (  2472 PWs)   bands (ev):

   -90.8499 -51.2425 -51.2422 -51.2421   6.6951   7.6097   7.9387   8.0100
     8.0842   8.6369   9.5553   9.5944  10.0417  10.2780  10.3828  10.5172
    10.9851  11.2865  11.6292  11.9188  13.2154  13.7576  16.7646  20.0766
    24.2268  24.4722  24.8061  26.0909

          k = 0.0000 0.8000 0.0000 (  2450 PWs)   bands (ev):

   -90.8497 -51.2424 -51.2421 -51.2421   6.9059   7.1134   7.6386   8.1957
     8.1957   8.7520   9.0083  10.1049  10.1351  10.1351  10.6313  10.8824
    11.2125  11.5274  11.5274  11.9097  13.7165  14.5308  14.5308  19.5592
    19.8135  27.5616  27.5616  29.1511

          k = 0.9000-0.1000 0.9000 (  2476 PWs)   bands (ev):

   -90.8499 -51.2427 -51.2422 -51.2422   7.0479   7.4503   7.6638   8.1279
     8.1852   8.6894   9.2429   9.7600  10.1585  10.2275  10.5965  10.8472
    11.0957  11.7576  11.8349  12.1062  12.8742  13.7241  14.2716  19.6613
    20.3307  27.4164  27.6948  29.2795

          k = 0.8000 0.0000 0.8000 (  2466 PWs)   bands (ev):

   -90.8498 -51.2426 -51.2421 -51.2421   7.0551   7.6828   7.7445   7.9484
     8.1324   8.9801   9.2847   9.5056  10.2268  10.3295  10.5144  10.7788
    10.9492  11.7717  11.9338  12.1379  12.6084  12.9383  14.7781  19.7428
    21.8261  26.3541  26.9559  27.4136

          k = 0.0000-1.0000 0.0000 (  2466 PWs)   bands (ev):

   -90.8498 -51.2427 -51.2421 -51.2421   7.0034   7.5235   7.9372   8.2136
     8.2136   8.2481   9.3929   9.7406  10.1372  10.1372  10.6285  10.8654
    11.1826  11.9295  11.9295  12.1971  12.6290  13.8242  13.8242  19.5458
    19.7634  29.0738  29.1938  29.1938

          k =-0.2000 0.4000 0.0000 (  2494 PWs)   bands (ev):

   -90.8501 -51.2425 -51.2422 -51.2422   4.9800   7.7219   7.9195   8.0362
     8.0831   8.2212   9.2090   9.6310   9.7400  10.5813  10.6788  10.7661
    11.1223  11.1414  11.5379  11.8169  16.4939  16.9220  19.0401  20.8587
    21.2324  23.0891  23.6893  24.6837

          k =-0.3000 0.5000-0.1000 (  2476 PWs)   bands (ev):

   -90.8499 -51.2425 -51.2422 -51.2421   5.6218   7.6302   7.9573   8.0208
     8.1190   8.3734   9.2635   9.6885   9.8932  10.3155  10.5469  10.6006
    11.1238  11.2486  11.5112  11.8392  14.5836  16.2287  18.0494  20.7442
    22.1269  22.9920  23.9280  25.2120

          k = 0.6000-0.4000 0.8000 (  2469 PWs)   bands (ev):

   -90.8498 -51.2425 -51.2422 -51.2421   6.2887   7.5885   7.9735   8.0298
     8.1706   8.5165   9.3214   9.6994   9.9510  10.1082  10.3885  10.4819
    11.1244  11.3349  11.6067  11.8440  13.0177  15.9821  17.1912  20.5636
    22.2764  23.8781  24.4303  25.1918

          k = 0.5000-0.3000 0.7000 (  2478 PWs)   bands (ev):

   -90.8499 -51.2425 -51.2422 -51.2422   6.5982   7.5878   7.9612   8.0829
     8.1770   8.5815   9.3335   9.7235   9.8359  10.1613  10.2871  10.4308
    11.1200  11.3833  11.7064  11.8263  12.3551  15.9846  16.7889  20.5024
    22.2281  24.2017  24.5827  26.4236

          k =-0.2000 0.6000 0.0000 (  2472 PWs)   bands (ev):

   -90.8499 -51.2425 -51.2421 -51.2421   5.8835   7.4148   7.8306   8.0959
     8.1430   8.5464   9.0912   9.9551  10.0286  10.3157  10.5957  10.7395
    11.0851  11.2352  11.4242  11.8302  14.8821  15.4768  16.5900  20.4212
    20.7468  24.1851  25.5050  26.6354

          k = 0.7000-0.3000 0.9000 (  2463 PWs)   bands (ev):

   -90.8498 -51.2425 -51.2421 -51.2421   6.5331   7.3435   7.8558   8.0573
     8.1667   8.7248   9.1839   9.9908  10.0224  10.1343  10.5025  10.6498
    11.0234  11.4044  11.5811  11.8698  13.3776  14.8933  15.8175  20.5246
    22.0353  23.6820  25.8979  26.9184

          k = 0.6000-0.2000 0.8000 (  2467 PWs)   bands (ev):

   -90.8498 -51.2425 -51.2421 -51.2421   6.9123   7.4028   7.9090   8.0117
     8.1706   8.7983   9.3698   9.7239  10.0561  10.1930  10.4403  10.5433
    10.9596  11.5167  11.7712  11.9451  12.3118  14.5674  15.5973  20.6265
    23.1197  23.9064  25.6911  26.3190

          k = 0.5000-0.1000 0.7000 (  2471 PWs)   bands (ev):

   -90.8499 -51.2425 -51.2422 -51.2421   6.7684   7.4902   7.9420   8.0151
     8.1408   8.6879   9.4762   9.6881  10.0071  10.2009  10.4455  10.5018
    10.9613  11.4321  11.6496  11.9168  12.7666  14.2944  16.1488  20.8706
    22.7753  24.2891  25.5210  25.8749

          k = 0.4000 0.0000 0.6000 (  2461 PWs)   bands (ev):

   -90.8498 -51.2424 -51.2421 -51.2421   6.2425   7.5313   7.9557   8.0320
     8.1280   8.5066   9.3615   9.7675  10.0320  10.1377  10.4989  10.5350
    11.0355  11.4017  11.4469  11.8848  13.9329  14.5965  17.0621  21.2128
    22.1960  23.1650  24.8682  26.3115

          k = 0.8000-0.2000 1.0000 (  2461 PWs)   bands (ev):

   -90.8498 -51.2426 -51.2421 -51.2420   6.9546   7.1592   7.7030   8.1049
     8.2054   8.9274   8.9913   9.9197  10.1383  10.2357  10.5734  10.8057
    11.0252  11.5560  11.6547  11.9402  13.4221  14.2343  14.6686  20.2412
    20.5272  25.5430  27.3841  28.5156

          k = 0.7000-0.1000 0.9000 (  2461 PWs)   bands (ev):

   -90.8498 -51.2426 -51.2421 -51.2420   7.1126   7.4318   7.7438   8.0031
     8.2072   9.0750   9.1374   9.6396  10.1640  10.3347  10.5169  10.7024
    10.8981  11.6821  11.9144  12.2100  12.4922  13.5092  14.4886  20.4409
    21.9126  24.9066  26.6494  27.6122

          k = 0.6000 0.0000 0.8000 (  2480 PWs)   bands (ev):

   -90.8499 -51.2426 -51.2422 -51.2422   7.0596   7.5128   7.8488   7.9658
     8.1628   8.9624   9.3864   9.5723  10.1985  10.2836  10.4956  10.5710
    10.8615  11.5940  11.8314  11.9889  12.8127  13.0892  15.1474  20.6394
    23.8098  24.1200  25.0071  26.7669

          k =-0.2000-1.0000 0.0000 (  2472 PWs)   bands (ev):

   -90.8499 -51.2427 -51.2422 -51.2421   7.0515   7.6087   7.7954   7.9424
     8.2307   8.7392   9.4553   9.4897  10.1359  10.3176  10.5747  10.8177
    10.9922  11.8187  11.9825  12.3895  12.4827  13.6121  13.7628  20.1954
    20.4709  26.6055  27.7315  28.8142

          k = 0.6000-0.2000 1.0000 (  2460 PWs)   bands (ev):

   -90.8498 -51.2425 -51.2422 -51.2420   7.0332   7.2956   7.8438   8.0020
     8.2160   8.8898   9.2996   9.7657  10.1422  10.1599  10.5050  10.6163
    10.8825  11.5930  11.7514  11.9942  12.9954  13.6475  14.9383  21.8968
    22.0610  23.2524  26.1296  27.0124

          k = 0.5000-0.1000 0.9000 (  2468 PWs)   bands (ev):

   -90.8498 -51.2425 -51.2422 -51.2421   7.1923   7.3392   7.8432   7.9683
     8.2413   8.9781   9.4426   9.5852  10.1622  10.2247  10.4911  10.5597
    10.8432  11.6585  11.9537  12.1892  12.3869  13.4939  14.4549  21.9952
    22.7202  24.1431  24.1475  27.4733

          k =-0.4000-1.0000 0.0000 (  2470 PWs)   bands (ev):

   -90.8498 -51.2426 -51.2422 -51.2421   7.1979   7.4477   7.7737   7.9508
     8.2685   9.1682   9.2611   9.5430  10.1339  10.4440  10.4579  10.5423
    10.8525  11.7216  12.0670  12.2407  12.7462  13.1797  13.6926  21.8370
    22.2662  24.0579  24.8613  28.4076

     the Fermi energy is    11.9137 ev

!    total energy              =   -1389.45994013 Ry

     total all-electron energy =    -43178.959721 Ry
     estimated scf accuracy    <          3.1E-09 Ry
     smearing contrib. (-TS)   =      -0.00487134 Ry
     internal energy E=F+TS    =   -1389.45506879 Ry

     The total energy is F=E-TS. E is the sum of the following terms:
     one-electron contribution =    -286.76979228 Ry
     hartree contribution      =     180.13307711 Ry
     xc contribution           =    -102.77805609 Ry
     ewald contribution        =    -314.38952923 Ry
     one-center paw contrib.   =    -865.65076829 Ry

     convergence has been achieved in  16 iterations

     Writing output data file ././cunipt.save/

     init_run     :      3.36s CPU      3.44s WALL (       1 calls)
     electrons    :    130.55s CPU    132.10s WALL (       1 calls)

     Called by init_run:
     wfcinit      :      2.24s CPU      2.25s WALL (       1 calls)
     potinit      :      0.37s CPU      0.39s WALL (       1 calls)
     hinit0       :      0.68s CPU      0.68s WALL (       1 calls)

     Called by electrons:
     c_bands      :    108.86s CPU    109.07s WALL (      16 calls)
     sum_band     :     15.45s CPU     16.18s WALL (      16 calls)
     v_of_rho     :      0.31s CPU      0.32s WALL (      17 calls)
     newd         :      0.88s CPU      1.50s WALL (      17 calls)
     PAW_pot      :      5.40s CPU      5.43s WALL (      17 calls)
     mix_rho      :      0.05s CPU      0.05s WALL (      16 calls)

     Called by c_bands:
     init_us_2    :      1.13s CPU      1.14s WALL (    1551 calls)
     cegterg      :    104.85s CPU    105.04s WALL (     752 calls)

     Called by *egterg:
     cdiaghg      :      2.19s CPU      2.20s WALL (    3006 calls)
     h_psi        :     62.47s CPU     62.62s WALL (    3053 calls)
     s_psi        :      8.94s CPU      8.95s WALL (    3053 calls)
     g_psi        :      0.36s CPU      0.36s WALL (    2254 calls)

     Called by h_psi:
     h_psi:calbec :      8.25s CPU      8.27s WALL (    3053 calls)
     vloc_psi     :     44.99s CPU     45.11s WALL (    3053 calls)
     add_vuspsi   :      9.02s CPU      9.03s WALL (    3053 calls)

     General routines
     calbec       :     11.43s CPU     11.45s WALL (    3805 calls)
     fft          :      0.15s CPU      0.15s WALL (     187 calls)
     ffts         :      0.01s CPU      0.01s WALL (      16 calls)
     fftw         :     48.52s CPU     48.66s WALL (  127826 calls)

     Parallel routines

     PWSCF        :   2m14.14s CPU   2m15.80s WALL


   This run was terminated on:  20:41:37  13Sep2024            

=------------------------------------------------------------------------------=
   JOB DONE.
=------------------------------------------------------------------------------=
