
     Program PWSCF v.6.7MaX starts on 13Sep2024 at 21: 6: 3 

     This program is part of the open-source Quantum ESPRESSO suite
     for quantum simulation of materials; please cite
         "P. Giannozzi et al., J. Phys.:Condens. Matter 21 395502 (2009);
         "P. Giannozzi et al., J. Phys.:Condens. Matter 29 465901 (2017);
          URL http://www.quantum-espresso.org", 
     in publications or presentations arising from this work. More details at
     http://www.quantum-espresso.org/quote

     Parallel version (MPI), running on     1 processors

     MPI processes distributed on     1 nodes
     Waiting for input...
     Reading input from standard input

     Current dimensions of program PWSCF are:
     Max number of different atomic species (ntypx) = 10
     Max number of k-points (npk) =  40000
     Max angular momentum in pseudopotentials (lmaxx) =  3
     file Cu.upf: wavefunction(s)  4S 3D renormalized
     file Ni.upf: wavefunction(s)  3P 3D renormalized
     file Pt.upf: wavefunction(s)  6S 5D renormalized

     Subspace diagonalization in iterative solution of the eigenvalue problem:
     a serial algorithm will be used


     G-vector sticks info
     --------------------
     sticks:   dense  smooth     PW     G-vecs:    dense   smooth      PW
     Sum        1135    1135    337                25125    25125    4015



     bravais-lattice index     =            2
     lattice parameter (alat)  =      11.7000  a.u.
     unit-cell volume          =     400.4032 (a.u.)^3
     number of atoms/cell      =            3
     number of atomic types    =            3
     number of electrons       =        39.00
     number of Kohn-Sham states=           28
     kinetic-energy cutoff     =      60.0000  Ry
     charge density cutoff     =     240.0000  Ry
     scf convergence threshold =      1.0E-07
     mixing beta               =       0.7000
     number of iterations used =            8  plain     mixing
     Exchange-correlation= SLA  PW   PBX  PBC
                           (   1   4   3   4   0   0   0)

     celldm(1)=  11.700000  celldm(2)=   0.000000  celldm(3)=   0.000000
     celldm(4)=   0.000000  celldm(5)=   0.000000  celldm(6)=   0.000000

     crystal axes: (cart. coord. in units of alat)
               a(1) = (  -0.500000   0.000000   0.500000 )  
               a(2) = (   0.000000   0.500000   0.500000 )  
               a(3) = (  -0.500000   0.500000   0.000000 )  

     reciprocal axes: (cart. coord. in units 2 pi/alat)
               b(1) = ( -1.000000 -1.000000  1.000000 )  
               b(2) = (  1.000000  1.000000  1.000000 )  
               b(3) = ( -1.000000  1.000000 -1.000000 )  


     PseudoPot. # 1 for Cu read from file:
     ././Cu.upf
     MD5 check sum: cfffd1f38ee05704b3e17f46f1730a6f
     Pseudo is Projector augmented-wave + core cor, Zval = 11.0
     Generated using &quot;atomic&quot; code by A. Dal Corso  v.6.3
     Shape of augmentation charge: PSQ
     Using radial grid of 1199 points,  6 beta functions with: 
                l(1) =   0
                l(2) =   0
                l(3) =   1
                l(4) =   1
                l(5) =   2
                l(6) =   2
     Q(r) pseudized with 0 coefficients 


     PseudoPot. # 2 for Ni read from file:
     ././Ni.upf
     MD5 check sum: 6e86b733589c3ad8389697b807d86aa7
     Pseudo is Projector augmented-wave + core cor, Zval = 18.0
     Generated using &quot;atomic&quot; code by A. Dal Corso  v.6.3
     Shape of augmentation charge: PSQ
     Using radial grid of 1195 points,  6 beta functions with: 
                l(1) =   0
                l(2) =   0
                l(3) =   1
                l(4) =   1
                l(5) =   2
                l(6) =   2
     Q(r) pseudized with 0 coefficients 


     PseudoPot. # 3 for Pt read from file:
     ././Pt.upf
     MD5 check sum: c5224e9cd7a5e36e81f2def9f50bb494
     Pseudo is Projector augmented-wave + core cor, Zval = 10.0
     Generated using &quot;atomic&quot; code by A. Dal Corso  v.6.3
     Shape of augmentation charge: PSQ
     Using radial grid of 1277 points,  6 beta functions with: 
                l(1) =   0
                l(2) =   0
                l(3) =   1
                l(4) =   1
                l(5) =   2
                l(6) =   2
     Q(r) pseudized with 0 coefficients 


     atomic species   valence    mass     pseudopotential
        Cu            11.00    63.54600     Cu( 1.00)
        Ni            18.00    58.69300     Ni( 1.00)
        Pt            10.00   195.08000     Pt( 1.00)

     24 Sym. Ops. (no inversion) found



   Cartesian axes

     site n.     atom                  positions (alat units)
         1           Cu  tau(   1) = (   0.0000000   0.0000000   0.0000000  )
         2           Ni  tau(   2) = (   0.5000000   0.5000000   0.5000000  )
         3           Pt  tau(   3) = (   0.2500000   0.2500000   0.2500000  )

     number of k points=    47  Gaussian smearing, width (Ry)=  0.0100
                       cart. coord. in units 2pi/alat
        k(    1) = (   0.0000000   0.0000000   0.0000000), wk =   0.0020000
        k(    2) = (  -0.1000000   0.1000000  -0.1000000), wk =   0.0160000
        k(    3) = (  -0.2000000   0.2000000  -0.2000000), wk =   0.0160000
        k(    4) = (  -0.3000000   0.3000000  -0.3000000), wk =   0.0160000
        k(    5) = (  -0.4000000   0.4000000  -0.4000000), wk =   0.0160000
        k(    6) = (   0.5000000  -0.5000000   0.5000000), wk =   0.0080000
        k(    7) = (   0.0000000   0.2000000   0.0000000), wk =   0.0120000
        k(    8) = (  -0.1000000   0.3000000  -0.1000000), wk =   0.0480000
        k(    9) = (  -0.2000000   0.4000000  -0.2000000), wk =   0.0480000
        k(   10) = (  -0.3000000   0.5000000  -0.3000000), wk =   0.0480000
        k(   11) = (   0.6000000  -0.4000000   0.6000000), wk =   0.0480000
        k(   12) = (   0.5000000  -0.3000000   0.5000000), wk =   0.0480000
        k(   13) = (   0.4000000  -0.2000000   0.4000000), wk =   0.0480000
        k(   14) = (   0.3000000  -0.1000000   0.3000000), wk =   0.0480000
        k(   15) = (   0.2000000   0.0000000   0.2000000), wk =   0.0240000
        k(   16) = (   0.0000000   0.4000000   0.0000000), wk =   0.0120000
        k(   17) = (  -0.1000000   0.5000000  -0.1000000), wk =   0.0480000
        k(   18) = (  -0.2000000   0.6000000  -0.2000000), wk =   0.0480000
        k(   19) = (   0.7000000  -0.3000000   0.7000000), wk =   0.0480000
        k(   20) = (   0.6000000  -0.2000000   0.6000000), wk =   0.0480000
        k(   21) = (   0.5000000  -0.1000000   0.5000000), wk =   0.0480000
        k(   22) = (   0.4000000   0.0000000   0.4000000), wk =   0.0240000
        k(   23) = (   0.0000000   0.6000000   0.0000000), wk =   0.0120000
        k(   24) = (  -0.1000000   0.7000000  -0.1000000), wk =   0.0480000
        k(   25) = (   0.8000000  -0.2000000   0.8000000), wk =   0.0480000
        k(   26) = (   0.7000000  -0.1000000   0.7000000), wk =   0.0480000
        k(   27) = (   0.6000000  -0.0000000   0.6000000), wk =   0.0240000
        k(   28) = (   0.0000000   0.8000000   0.0000000), wk =   0.0120000
        k(   29) = (   0.9000000  -0.1000000   0.9000000), wk =   0.0480000
        k(   30) = (   0.8000000   0.0000000   0.8000000), wk =   0.0240000
        k(   31) = (   0.0000000  -1.0000000   0.0000000), wk =   0.0060000
        k(   32) = (  -0.2000000   0.4000000   0.0000000), wk =   0.0480000
        k(   33) = (  -0.3000000   0.5000000  -0.1000000), wk =   0.0960000
        k(   34) = (   0.6000000  -0.4000000   0.8000000), wk =   0.0960000
        k(   35) = (   0.5000000  -0.3000000   0.7000000), wk =   0.0480000
        k(   36) = (  -0.2000000   0.6000000   0.0000000), wk =   0.0480000
        k(   37) = (   0.7000000  -0.3000000   0.9000000), wk =   0.0960000
        k(   38) = (   0.6000000  -0.2000000   0.8000000), wk =   0.0960000
        k(   39) = (   0.5000000  -0.1000000   0.7000000), wk =   0.0960000
        k(   40) = (   0.4000000   0.0000000   0.6000000), wk =   0.0480000
        k(   41) = (   0.8000000  -0.2000000   1.0000000), wk =   0.0480000
        k(   42) = (   0.7000000  -0.1000000   0.9000000), wk =   0.0960000
        k(   43) = (   0.6000000   0.0000000   0.8000000), wk =   0.0480000
        k(   44) = (  -0.2000000  -1.0000000   0.0000000), wk =   0.0240000
        k(   45) = (   0.6000000  -0.2000000   1.0000000), wk =   0.0480000
        k(   46) = (   0.5000000  -0.1000000   0.9000000), wk =   0.0480000
        k(   47) = (  -0.4000000  -1.0000000   0.0000000), wk =   0.0240000

     Dense  grid:    25125 G-vectors     FFT dimensions: (  45,  45,  45)

     Estimated max dynamical RAM per process >     160.69 MB

     Check: negative core charge=   -0.000003

     Initial potential from superposition of free atoms

     starting charge   38.99935, renormalised to   39.00000
     Starting wfcs are   28 randomized atomic wfcs
     Checking if some PAW data can be deallocated... 

     total cpu time spent up to now is        4.5 secs

     Self-consistent Calculation

     iteration #  1     ecut=    60.00 Ry     beta= 0.70
     Davidson diagonalization with overlap
     ethr =  1.00E-02,  avg # of iterations =  6.4

     total cpu time spent up to now is       18.4 secs

     total energy              =   -1387.77551267 Ry
     estimated scf accuracy    <       2.07625772 Ry

     iteration #  2     ecut=    60.00 Ry     beta= 0.70
     Davidson diagonalization with overlap
     ethr =  5.32E-03,  avg # of iterations =  3.5

     total cpu time spent up to now is       34.3 secs

     total energy              =   -1386.13077104 Ry
     estimated scf accuracy    <      60.23107028 Ry

     iteration #  3     ecut=    60.00 Ry     beta= 0.70
     Davidson diagonalization with overlap
     ethr =  5.32E-03,  avg # of iterations =  4.3

     total cpu time spent up to now is       48.1 secs

     total energy              =   -1389.35490277 Ry
     estimated scf accuracy    <       0.74558432 Ry

     iteration #  4     ecut=    60.00 Ry     beta= 0.70
     Davidson diagonalization with overlap
     ethr =  1.91E-03,  avg # of iterations =  1.0

     total cpu time spent up to now is       57.4 secs

     total energy              =   -1389.39574313 Ry
     estimated scf accuracy    <       0.13395486 Ry

     iteration #  5     ecut=    60.00 Ry     beta= 0.70
     Davidson diagonalization with overlap
     ethr =  3.43E-04,  avg # of iterations =  1.6

     total cpu time spent up to now is       67.3 secs

     total energy              =   -1389.39890317 Ry
     estimated scf accuracy    <       0.02763804 Ry

     iteration #  6     ecut=    60.00 Ry     beta= 0.70
     Davidson diagonalization with overlap
     ethr =  7.09E-05,  avg # of iterations =  3.0

     total cpu time spent up to now is       78.3 secs

     total energy              =   -1389.40162725 Ry
     estimated scf accuracy    <       0.01095819 Ry

     iteration #  7     ecut=    60.00 Ry     beta= 0.70
     Davidson diagonalization with overlap
     ethr =  2.81E-05,  avg # of iterations =  2.5

     total cpu time spent up to now is       88.7 secs

     total energy              =   -1389.40249625 Ry
     estimated scf accuracy    <       0.01270104 Ry

     iteration #  8     ecut=    60.00 Ry     beta= 0.70
     Davidson diagonalization with overlap
     ethr =  2.81E-05,  avg # of iterations =  1.3

     total cpu time spent up to now is       98.2 secs

     total energy              =   -1389.40364519 Ry
     estimated scf accuracy    <       0.00268775 Ry

     iteration #  9     ecut=    60.00 Ry     beta= 0.70
     Davidson diagonalization with overlap
     ethr =  6.89E-06,  avg # of iterations =  3.4

     total cpu time spent up to now is      108.6 secs

     total energy              =   -1389.40392255 Ry
     estimated scf accuracy    <       0.00010550 Ry

     iteration # 10     ecut=    60.00 Ry     beta= 0.70
     Davidson diagonalization with overlap
     ethr =  2.71E-07,  avg # of iterations =  5.4

     total cpu time spent up to now is      124.2 secs

     total energy              =   -1389.40398898 Ry
     estimated scf accuracy    <       0.00004065 Ry

     iteration # 11     ecut=    60.00 Ry     beta= 0.70
     Davidson diagonalization with overlap
     ethr =  1.04E-07,  avg # of iterations =  1.3

     total cpu time spent up to now is      133.2 secs

     total energy              =   -1389.40398333 Ry
     estimated scf accuracy    <       0.00002016 Ry

     iteration # 12     ecut=    60.00 Ry     beta= 0.70
     Davidson diagonalization with overlap
     ethr =  5.17E-08,  avg # of iterations =  1.2

     total cpu time spent up to now is      141.7 secs

     total energy              =   -1389.40398468 Ry
     estimated scf accuracy    <       0.00000150 Ry

     iteration # 13     ecut=    60.00 Ry     beta= 0.70
     Davidson diagonalization with overlap
     ethr =  3.84E-09,  avg # of iterations =  3.5

     total cpu time spent up to now is      153.0 secs

     total energy              =   -1389.40398512 Ry
     estimated scf accuracy    <       0.00000074 Ry

     iteration # 14     ecut=    60.00 Ry     beta= 0.70
     Davidson diagonalization with overlap
     ethr =  1.88E-09,  avg # of iterations =  1.2

     total cpu time spent up to now is      161.5 secs

     total energy              =   -1389.40398501 Ry
     estimated scf accuracy    <       0.00000028 Ry

     iteration # 15     ecut=    60.00 Ry     beta= 0.70
     Davidson diagonalization with overlap
     ethr =  7.19E-10,  avg # of iterations =  2.1

     total cpu time spent up to now is      172.1 secs

     End of self-consistent calculation

          k = 0.0000 0.0000 0.0000 (  3143 PWs)   bands (ev):

   -94.2814 -54.6736 -54.6736 -54.6736   1.8083   5.2802   5.2802   5.3592
     5.3592   5.3592   6.2983   6.2983   6.2983   7.2918   7.2918   7.6335
     7.6335   7.6335   7.9955   7.9955  14.9534  16.4782  16.4782  16.4784
    16.5878  16.5878  16.5880  17.3716

          k =-0.1000 0.1000-0.1000 (  3149 PWs)   bands (ev):

   -94.2815 -54.6736 -54.6735 -54.6735   1.9335   5.2943   5.2943   5.3299
     5.3685   5.3685   6.3091   6.3191   6.3191   7.2836   7.2836   7.5593
     7.6172   7.6172   7.9955   7.9955  14.0630  15.3132  15.6510  15.6510
    17.2918  17.3455  17.3456  17.9014

          k =-0.2000 0.2000-0.2000 (  3122 PWs)   bands (ev):

   -94.2813 -54.6734 -54.6734 -54.6734   2.2969   5.2699   5.3004   5.3004
     5.4286   5.4286   6.3108   6.3766   6.3766   7.2323   7.2323   7.3788
     7.5966   7.5966   7.9986   7.9986  12.0545  14.8622  14.8622  15.3251
    17.2855  17.4345  17.4346  18.1085

          k =-0.3000 0.3000-0.3000 (  3143 PWs)   bands (ev):

   -94.2814 -54.6736 -54.6735 -54.6735   2.8481   5.2361   5.2865   5.2865
     5.5373   5.5373   6.2353   6.4591   6.4591   7.1031   7.1031   7.1894
     7.6174   7.6174   8.0053   8.0053  10.2810  14.2205  14.2205  15.4216
    16.7130  17.1520  17.1520  19.3720

          k =-0.4000 0.4000-0.4000 (  3157 PWs)   bands (ev):

   -94.2815 -54.6737 -54.6736 -54.6736   3.4431   5.2718   5.2718   5.2912
     5.6442   5.6442   6.0278   6.5529   6.5529   6.9357   6.9357   7.0636
     7.6617   7.6617   8.0103   8.0103   8.9959  13.7923  13.7923  15.5496
    16.2752  16.9336  16.9336  21.0370

          k = 0.5000-0.5000 0.5000 (  3142 PWs)   bands (ev):

   -94.2814 -54.6738 -54.6735 -54.6735   3.7350   5.2658   5.2658   5.4191
     5.6906   5.6906   5.8103   6.6168   6.6168   6.8359   6.8359   7.0149
     7.6838   7.6838   8.0117   8.0117   8.5107  13.6405  13.6405  15.6458
    16.0735  16.8565  16.8565  22.1121

          k = 0.0000 0.2000 0.0000 (  3159 PWs)   bands (ev):

   -94.2815 -54.6736 -54.6736 -54.6736   1.9758   5.2515   5.3274   5.3385
     5.3689   5.3689   6.2392   6.3669   6.3669   7.2739   7.2919   7.5566
     7.6068   7.6068   7.9548   8.0236  14.6140  14.7813  14.7813  15.2256
    17.1450  17.3208  18.2218  18.2219

          k =-0.1000 0.3000-0.1000 (  3136 PWs)   bands (ev):

   -94.2814 -54.6735 -54.6735 -54.6734   2.2619   5.1937   5.3200   5.3510
     5.3872   5.4407   6.2128   6.4316   6.4477   7.2286   7.2742   7.4308
     7.5872   7.5877   7.9241   8.0384  12.7381  14.0121  14.4026  15.4230
    16.8547  17.4245  18.3229  18.4250

          k =-0.2000 0.4000-0.2000 (  3149 PWs)   bands (ev):

   -94.2815 -54.6736 -54.6735 -54.6735   2.7571   5.1291   5.3228   5.3325
     5.4446   5.5623   6.2230   6.4684   6.5436   7.0972   7.2000   7.2501
     7.5907   7.6124   7.9197   8.0478  10.8488  13.4395  13.8166  15.4047
    17.2558  17.5912  18.0408  18.1465

          k =-0.3000 0.5000-0.3000 (  3144 PWs)   bands (ev):

   -94.2814 -54.6736 -54.6736 -54.6735   3.3595   5.1004   5.3092   5.3403
     5.5252   5.6773   6.1952   6.4939   6.6365   6.9114   7.0603   7.1138
     7.6309   7.6545   7.9507   8.0446   9.3550  13.1386  13.2025  15.3151
    17.0295  17.7454  17.7614  19.0927

          k = 0.6000-0.4000 0.6000 (  3137 PWs)   bands (ev):

   -94.2814 -54.6737 -54.6735 -54.6734   3.7950   5.1270   5.2895   5.3957
     5.5629   5.7316   6.0965   6.5723   6.6417   6.8312   6.9200   7.0347
     7.6557   7.6876   8.0074   8.0179   8.5433  12.7314  13.1703  15.3603
    16.7342  17.4210  17.8639  20.7049

          k = 0.5000-0.3000 0.5000 (  3142 PWs)   bands (ev):

   -94.2814 -54.6738 -54.6735 -54.6735   3.6911   5.1491   5.2800   5.3555
     5.5974   5.6849   6.1412   6.5210   6.6603   6.8464   6.9524   7.0518
     7.6212   7.7076   7.9608   8.0504   8.7274  12.5184  13.5491  15.5490
    16.4895  17.1842  18.1682  20.8477

          k = 0.4000-0.2000 0.4000 (  3133 PWs)   bands (ev):

   -94.2813 -54.6736 -54.6735 -54.6735   3.1541   5.1523   5.2818   5.3236
     5.5672   5.5737   6.2632   6.4229   6.6125   6.9696   7.1080   7.1483
     7.5829   7.6756   7.9181   8.0628   9.8119  12.6002  14.2288  15.8623
    16.3646  17.0655  18.5408  19.2476

          k = 0.3000-0.1000 0.3000 (  3138 PWs)   bands (ev):

   -94.2814 -54.6736 -54.6735 -54.6734   2.5698   5.1973   5.2891   5.3327
     5.4488   5.4915   6.3060   6.3524   6.5200   7.1403   7.2287   7.2995
     7.5721   7.6183   7.9202   8.0523  11.4619  12.9369  15.1218  16.0645
    16.5704  17.0052  17.9098  18.8597

          k = 0.2000 0.0000 0.2000 (  3140 PWs)   bands (ev):

   -94.2814 -54.6735 -54.6735 -54.6735   2.1390   5.2681   5.2891   5.3369
     5.3824   5.4071   6.2987   6.3146   6.4188   7.2470   7.2782   7.4633
     7.5967   7.6000   7.9524   8.0291  13.4122  13.4818  15.8772  16.0305
    16.7522  17.0921  17.3361  18.1988

          k = 0.0000 0.4000 0.0000 (  3135 PWs)   bands (ev):

   -94.2814 -54.6735 -54.6735 -54.6735   2.4695   5.0785   5.3053   5.3958
     5.3958   5.5073   6.1204   6.5501   6.5501   7.2092   7.2809   7.4302
     7.5635   7.5635   7.8495   8.0487  13.1887  13.1887  13.2607  14.2667
    16.0406  18.8390  19.1808  19.1808

          k =-0.1000 0.5000-0.1000 (  3139 PWs)   bands (ev):

   -94.2814 -54.6736 -54.6735 -54.6735   2.8969   4.9713   5.3031   5.3948
     5.4100   5.6387   6.1010   6.6361   6.6562   7.1014   7.2495   7.3249
     7.5818   7.5895   7.8168   8.0552  11.4149  12.5542  12.7035  14.5990
    16.0571  19.1240  19.3538  19.3947

          k =-0.2000 0.6000-0.2000 (  3135 PWs)   bands (ev):

   -94.2814 -54.6736 -54.6735 -54.6735   3.4704   4.8989   5.3304   5.3738
     5.4216   5.7749   6.1464   6.6749   6.7519   6.8963   7.1587   7.2082
     7.6164   7.6397   7.8828   8.0607   9.7959  11.9728  12.2125  14.7913
    17.0622  18.6651  19.0628  19.5178

          k = 0.7000-0.3000 0.7000 (  3146 PWs)   bands (ev):

   -94.2814 -54.6737 -54.6736 -54.6736   3.9802   4.9004   5.3458   5.3630
     5.4324   5.8552   6.2371   6.6719   6.6953   6.8539   7.0539   7.1070
     7.5843   7.7274   8.0033   8.0607   8.6632  11.3546  12.2474  14.8979
    18.1467  18.5449  18.6377  19.8018

          k = 0.6000-0.2000 0.6000 (  3136 PWs)   bands (ev):

   -94.2814 -54.6737 -54.6735 -54.6735   4.0444   4.9889   5.3177   5.3207
     5.4911   5.8152   6.3621   6.5130   6.6989   6.9570   6.9727   7.0744
     7.5387   7.7349   7.9891   8.0792   8.5530  10.9652  12.6738  15.0910
    17.7490  18.2384  19.6573  20.6492

          k = 0.5000-0.1000 0.5000 (  3129 PWs)   bands (ev):

   -94.2813 -54.6736 -54.6735 -54.6735   3.6207   5.0412   5.3027   5.3046
     5.5415   5.6745   6.3971   6.4249   6.7606   6.8685   7.1013   7.1307
     7.5134   7.7397   7.8488   8.0997   9.4829  10.8867  13.4176  15.4092
    17.4690  17.8956  19.0093  20.0904

          k = 0.4000 0.0000 0.4000 (  3118 PWs)   bands (ev):

   -94.2812 -54.6735 -54.6734 -54.6734   3.0452   5.1051   5.2957   5.3266
     5.5309   5.5367   6.3551   6.3724   6.6729   6.9856   7.1939   7.2114
     7.5297   7.6941   7.8339   8.0862  10.8514  11.2479  14.3441  15.8679
    17.0731  17.4934  17.9707  19.0758

          k = 0.0000 0.6000 0.0000 (  3130 PWs)   bands (ev):

   -94.2813 -54.6735 -54.6735 -54.6735   3.2548   4.8308   5.2459   5.4314
     5.4314   5.7688   6.0120   6.7515   6.7515   7.0646   7.2502   7.3511
     7.6255   7.6255   7.7309   8.0575  11.2450  11.8120  11.8120  14.0422
    15.4035  20.3342  20.3342  20.7974

          k =-0.1000 0.7000-0.1000 (  3137 PWs)   bands (ev):

   -94.2814 -54.6737 -54.6735 -54.6735   3.7766   4.7336   5.2296   5.4324
     5.4330   5.9226   5.9916   6.8036   6.8044   6.9178   7.2082   7.3038
     7.6165   7.7360   7.8352   8.0797  10.0781  11.0347  11.3558  14.3127
    15.6212  20.3564  20.5176  21.4525

          k = 0.8000-0.2000 0.8000 (  3148 PWs)   bands (ev):

   -94.2815 -54.6737 -54.6736 -54.6735   4.2939   4.7199   5.2614   5.3753
     5.4079   6.0455   6.0695   6.6413   6.8569   6.9229   7.1316   7.2401
     7.5316   7.8636   8.0178   8.1630   8.9244  10.2451  11.3161  14.5585
    16.7454  19.8538  20.0959  21.6495

          k = 0.7000-0.1000 0.7000 (  3156 PWs)   bands (ev):

   -94.2815 -54.6738 -54.6736 -54.6736   4.4018   4.9072   5.2314   5.3619
     5.3719   6.0338   6.2608   6.4795   6.8993   7.0031   7.0715   7.1615
     7.4607   7.8466   8.1068   8.1705   8.5348   9.6885  11.7300  14.7503
    18.3268  19.3791  19.5147  20.9291

          k = 0.6000-0.0000 0.6000 (  3142 PWs)   bands (ev):

   -94.2814 -54.6737 -54.6736 -54.6736   4.1145   4.9828   5.2345   5.3360
     5.4647   5.8570   6.4373   6.4401   6.7723   7.0097   7.0704   7.1340
     7.4526   7.7081   7.9602   8.1199   9.2720   9.6076  12.4878  15.0196
    18.7792  18.8127  19.2032  20.5199

          k = 0.0000 0.8000 0.0000 (  3142 PWs)   bands (ev):

   -94.2814 -54.6737 -54.6735 -54.6735   4.2372   4.6263   5.1639   5.4622
     5.4622   5.8177   6.0899   6.8191   6.8362   6.8362   7.2133   7.3244
     7.6536   7.9035   7.9035   8.1232   9.5484  10.7474  10.7474  13.9422
    15.1173  21.7696  21.7696  22.8043

          k = 0.9000-0.1000 0.9000 (  3156 PWs)   bands (ev):

   -94.2815 -54.6738 -54.6736 -54.6735   4.5735   4.7418   5.1623   5.3652
     5.4560   5.7779   6.2470   6.5977   6.8627   6.9018   7.1798   7.3046
     7.5811   8.0303   8.0704   8.2725   8.9085  10.0198  10.5835  14.2103
    15.4399  21.6484  21.7168  23.1285

          k = 0.8000 0.0000 0.8000 (  3170 PWs)   bands (ev):

   -94.2816 -54.6739 -54.6736 -54.6736   4.5599   5.0571   5.0952   5.2328
     5.4210   6.0053   6.2929   6.4065   6.9293   6.9827   7.1226   7.2531
     7.4797   8.0347   8.1246   8.4128   8.6748   9.1938  10.9628  14.4977
    16.6472  20.7223  20.9856  21.5986

          k = 0.0000-1.0000 0.0000 (  3138 PWs)   bands (ev):

   -94.2814 -54.6737 -54.6734 -54.6734   4.5456   5.0357   5.1338   5.4047
     5.4745   5.4745   6.3476   6.5847   6.8449   6.8449   7.1957   7.3204
     7.6295   8.1195   8.1195   8.3509   8.6504  10.2826  10.2826  13.9148
    15.0376  22.8931  22.8931  23.5866

          k =-0.2000 0.4000 0.0000 (  3139 PWs)   bands (ev):

   -94.2814 -54.6736 -54.6735 -54.6735   2.6176   5.1021   5.3229   5.3600
     5.4060   5.5345   6.1885   6.4869   6.5745   7.1405   7.2543   7.3302
     7.5613   7.6084   7.8711   8.0571  12.0040  12.3030  14.1912  15.4148
    16.6093  17.7328  18.1940  19.3670

          k =-0.3000 0.5000-0.1000 (  3135 PWs)   bands (ev):

   -94.2814 -54.6736 -54.6735 -54.6735   3.1553   5.0236   5.3297   5.3447
     5.4526   5.6483   6.2219   6.5289   6.6897   6.9704   7.1853   7.2033
     7.5514   7.6806   7.8504   8.0733  10.3483  11.7798  13.4151  15.6865
    16.9653  17.5543  18.4789  19.6504

          k = 0.6000-0.4000 0.8000 (  3138 PWs)   bands (ev):

   -94.2814 -54.6737 -54.6735 -54.6735   3.7298   4.9898   5.3115   5.3550
     5.4986   5.7510   6.2738   6.5524   6.7317   6.8357   7.0648   7.1046
     7.5627   7.7269   7.9187   8.0750   9.0146  11.5907  12.7554  15.6855
    16.7319  18.4597  19.0184  19.4273

          k = 0.5000-0.3000 0.7000 (  3146 PWs)   bands (ev):

   -94.2814 -54.6738 -54.6736 -54.6735   4.0071   4.9959   5.2949   5.3792
     5.5056   5.7953   6.3069   6.5632   6.6488   6.8912   6.9739   7.0537
     7.5638   7.7608   7.9930   8.0638   8.4474  11.5734  12.4693  15.6794
    16.6103  18.7614  19.0264  20.5371

          k =-0.2000 0.6000 0.0000 (  3134 PWs)   bands (ev):

   -94.2814 -54.6735 -54.6735 -54.6735   3.3711   4.8617   5.2930   5.3875
     5.4309   5.7705   6.0924   6.7060   6.7679   6.9661   7.2147   7.2771
     7.5595   7.6959   7.7956   8.0687  10.6535  11.2201  12.1993  14.9394
    16.0428  18.7093  20.0956  20.6358

          k = 0.7000-0.3000 0.9000 (  3139 PWs)   bands (ev):

   -94.2814 -54.6737 -54.6736 -54.6735   3.9330   4.8016   5.3136   5.3406
     5.4494   5.8951   6.1547   6.7462   6.7684   6.8581   7.1439   7.2140
     7.5135   7.7956   7.9065   8.1012   9.3946  10.6861  11.6158  15.3141
    16.9465  18.1357  20.4495  20.8750

          k = 0.6000-0.2000 0.8000 (  3152 PWs)   bands (ev):

   -94.2815 -54.6738 -54.6736 -54.6736   4.2984   4.8396   5.2677   5.3486
     5.4574   5.9489   6.2942   6.5554   6.8236   6.9218   7.0802   7.1402
     7.4516   7.8745   8.0438   8.1931   8.4540  10.3652  11.4909  15.5241
    17.6310  18.4826  20.1857  20.6638

          k = 0.5000-0.1000 0.7000 (  3144 PWs)   bands (ev):

   -94.2814 -54.6738 -54.6736 -54.6735   4.1713   4.9050   5.2512   5.3581
     5.4727   5.8800   6.3631   6.5352   6.7640   6.9428   7.1016   7.1196
     7.4409   7.8037   7.9753   8.1259   8.8491  10.1333  11.9128  15.8318
    17.2505  18.8315  19.9463  20.3386

          k = 0.4000 0.0000 0.6000 (  3142 PWs)   bands (ev):

   -94.2814 -54.6737 -54.6736 -54.6735   3.6894   4.9397   5.3053   5.3469
     5.4752   5.7522   6.2811   6.5845   6.7789   6.8704   7.1501   7.1625
     7.4891   7.7772   7.8227   8.1037   9.8698  10.3417  12.6303  16.2729
    16.7152  17.7743  19.3440  20.7487

          k = 0.8000-0.2000 1.0000 (  3145 PWs)   bands (ev):

   -94.2814 -54.6737 -54.6736 -54.6735   4.2895   4.6598   5.2141   5.3677
     5.4721   5.9627   6.0748   6.7005   6.8524   6.9010   7.1761   7.2879
     7.5385   7.9123   7.9618   8.1525   9.4012  10.3227  10.7448  14.7088
    15.7511  19.8713  21.7012  22.5588

          k = 0.7000-0.1000 0.9000 (  3146 PWs)   bands (ev):

   -94.2814 -54.6737 -54.6736 -54.6735   4.5878   4.7776   5.2143   5.2550
     5.4763   6.0754   6.1809   6.5036   6.8929   6.9858   7.1258   7.2414
     7.4197   7.9818   8.1201   8.3563   8.7262   9.5745  10.6368  15.1549
    16.7724  19.2571  20.9810  21.7868

          k = 0.6000 0.0000 0.8000 (  3150 PWs)   bands (ev):

   -94.2815 -54.6737 -54.6737 -54.6736   4.5019   4.9113   5.1489   5.3236
     5.4584   6.0715   6.3044   6.4369   6.9226   6.9923   7.1125   7.1712
     7.3596   7.9332   8.1166   8.2008   8.9732   9.0782  11.1334  15.4632
    18.3890  18.5089  19.5526  21.0331

          k =-0.2000-1.0000 0.0000 (  3160 PWs)   bands (ev):

   -94.2815 -54.6738 -54.6736 -54.6736   4.5799   5.0589   5.1158   5.1759
     5.4894   5.8235   6.3806   6.4259   6.8578   6.9626   7.1614   7.2903
     7.5119   8.0558   8.1530   8.4987   8.5718   9.9147  10.1552  14.6424
    15.6650  20.7963  21.9041  22.6948

          k = 0.6000-0.2000 1.0000 (  3137 PWs)   bands (ev):

   -94.2814 -54.6737 -54.6735 -54.6735   4.4030   4.7588   5.2383   5.3129
     5.4965   6.0133   6.2330   6.5847   6.8654   6.9063   7.1265   7.2069
     7.3806   7.9178   8.0368   8.1926   9.1172   9.6281  10.8892  16.3933
    17.1486  17.6746  20.5304  21.3636

          k = 0.5000-0.1000 0.9000 (  3148 PWs)   bands (ev):

   -94.2815 -54.6738 -54.6736 -54.6735   4.6021   4.7895   5.1535   5.3160
     5.5164   6.0759   6.3310   6.4538   6.9224   6.9590   7.1041   7.1804
     7.3119   7.9629   8.1526   8.3612   8.6333   9.4734  10.5335  16.8031
    17.1477  18.6000  18.8596  21.7527

          k =-0.4000-1.0000 0.0000 (  3154 PWs)   bands (ev):

   -94.2815 -54.6738 -54.6736 -54.6736   4.6850   4.8639   5.0773   5.2761
     5.5292   6.2010   6.2163   6.4197   6.8942   7.0634   7.1275   7.1721
     7.3051   8.0009   8.2089   8.4262   8.8232   9.3046   9.9964  16.3023
    17.2500  18.4188  19.4054  22.4451

     the Fermi energy is     8.1477 ev

!    total energy              =   -1389.40398506 Ry

     total all-electron energy =    -43178.903766 Ry
     estimated scf accuracy    <          2.6E-09 Ry
     smearing contrib. (-TS)   =      -0.00569375 Ry
     internal energy E=F+TS    =   -1389.39829131 Ry

     The total energy is F=E-TS. E is the sum of the following terms:
     one-electron contribution =    -326.15647365 Ry
     hartree contribution      =     194.97468711 Ry
     xc contribution           =    -102.43388945 Ry
     ewald contribution        =    -290.20571929 Ry
     one-center paw contrib.   =    -865.57689603 Ry

     convergence has been achieved in  15 iterations

     Writing output data file ././cunipt.save/

     init_run     :      4.23s CPU      4.33s WALL (       1 calls)
     electrons    :    165.33s CPU    167.52s WALL (       1 calls)

     Called by init_run:
     wfcinit      :      3.08s CPU      3.10s WALL (       1 calls)
     potinit      :      0.36s CPU      0.38s WALL (       1 calls)
     hinit0       :      0.70s CPU      0.70s WALL (       1 calls)

     Called by electrons:
     c_bands      :    139.24s CPU    139.63s WALL (      15 calls)
     sum_band     :     19.54s CPU     20.53s WALL (      15 calls)
     v_of_rho     :      0.43s CPU      0.44s WALL (      16 calls)
     newd         :      1.14s CPU      1.99s WALL (      16 calls)
     PAW_pot      :      5.32s CPU      5.34s WALL (      16 calls)
     mix_rho      :      0.06s CPU      0.06s WALL (      15 calls)

     Called by c_bands:
     init_us_2    :      1.49s CPU      1.50s WALL (    1457 calls)
     cegterg      :    134.02s CPU    134.39s WALL (     705 calls)

     Called by *egterg:
     cdiaghg      :      2.08s CPU      2.09s WALL (    2665 calls)
     h_psi        :     83.10s CPU     83.37s WALL (    2712 calls)
     s_psi        :     11.20s CPU     11.23s WALL (    2712 calls)
     g_psi        :      0.43s CPU      0.43s WALL (    1960 calls)

     Called by h_psi:
     h_psi:calbec :     10.38s CPU     10.41s WALL (    2712 calls)
     vloc_psi     :     61.14s CPU     61.36s WALL (    2712 calls)
     add_vuspsi   :     11.24s CPU     11.27s WALL (    2712 calls)

     General routines
     calbec       :     14.55s CPU     14.59s WALL (    3417 calls)
     fft          :      0.16s CPU      0.16s WALL (     176 calls)
     ffts         :      0.01s CPU      0.01s WALL (      15 calls)
     fftw         :     63.90s CPU     64.12s WALL (  116452 calls)

     Parallel routines

     PWSCF        :   2m49.80s CPU   2m52.13s WALL


   This run was terminated on:  21: 8:55  13Sep2024            

=------------------------------------------------------------------------------=
   JOB DONE.
=------------------------------------------------------------------------------=
