
     Program PWSCF v.6.7MaX starts on 13Sep2024 at 20:49:59 

     This program is part of the open-source Quantum ESPRESSO suite
     for quantum simulation of materials; please cite
         "P. Giannozzi et al., J. Phys.:Condens. Matter 21 395502 (2009);
         "P. Giannozzi et al., J. Phys.:Condens. Matter 29 465901 (2017);
          URL http://www.quantum-espresso.org", 
     in publications or presentations arising from this work. More details at
     http://www.quantum-espresso.org/quote

     Parallel version (MPI), running on     1 processors

     MPI processes distributed on     1 nodes
     Waiting for input...
     Reading input from standard input

     Current dimensions of program PWSCF are:
     Max number of different atomic species (ntypx) = 10
     Max number of k-points (npk) =  40000
     Max angular momentum in pseudopotentials (lmaxx) =  3
     file Cu.upf: wavefunction(s)  4S 3D renormalized
     file Ni.upf: wavefunction(s)  3P 3D renormalized
     file Pt.upf: wavefunction(s)  6S 5D renormalized

     Subspace diagonalization in iterative solution of the eigenvalue problem:
     a serial algorithm will be used


     G-vector sticks info
     --------------------
     sticks:   dense  smooth     PW     G-vecs:    dense   smooth      PW
     Sum        1003    1003    301                20827    20827    3479



     bravais-lattice index     =            2
     lattice parameter (alat)  =      11.0000  a.u.
     unit-cell volume          =     332.7500 (a.u.)^3
     number of atoms/cell      =            3
     number of atomic types    =            3
     number of electrons       =        39.00
     number of Kohn-Sham states=           28
     kinetic-energy cutoff     =      60.0000  Ry
     charge density cutoff     =     240.0000  Ry
     scf convergence threshold =      1.0E-07
     mixing beta               =       0.7000
     number of iterations used =            8  plain     mixing
     Exchange-correlation= SLA  PW   PBX  PBC
                           (   1   4   3   4   0   0   0)

     celldm(1)=  11.000000  celldm(2)=   0.000000  celldm(3)=   0.000000
     celldm(4)=   0.000000  celldm(5)=   0.000000  celldm(6)=   0.000000

     crystal axes: (cart. coord. in units of alat)
               a(1) = (  -0.500000   0.000000   0.500000 )  
               a(2) = (   0.000000   0.500000   0.500000 )  
               a(3) = (  -0.500000   0.500000   0.000000 )  

     reciprocal axes: (cart. coord. in units 2 pi/alat)
               b(1) = ( -1.000000 -1.000000  1.000000 )  
               b(2) = (  1.000000  1.000000  1.000000 )  
               b(3) = ( -1.000000  1.000000 -1.000000 )  


     PseudoPot. # 1 for Cu read from file:
     ././Cu.upf
     MD5 check sum: cfffd1f38ee05704b3e17f46f1730a6f
     Pseudo is Projector augmented-wave + core cor, Zval = 11.0
     Generated using &quot;atomic&quot; code by A. Dal Corso  v.6.3
     Shape of augmentation charge: PSQ
     Using radial grid of 1199 points,  6 beta functions with: 
                l(1) =   0
                l(2) =   0
                l(3) =   1
                l(4) =   1
                l(5) =   2
                l(6) =   2
     Q(r) pseudized with 0 coefficients 


     PseudoPot. # 2 for Ni read from file:
     ././Ni.upf
     MD5 check sum: 6e86b733589c3ad8389697b807d86aa7
     Pseudo is Projector augmented-wave + core cor, Zval = 18.0
     Generated using &quot;atomic&quot; code by A. Dal Corso  v.6.3
     Shape of augmentation charge: PSQ
     Using radial grid of 1195 points,  6 beta functions with: 
                l(1) =   0
                l(2) =   0
                l(3) =   1
                l(4) =   1
                l(5) =   2
                l(6) =   2
     Q(r) pseudized with 0 coefficients 


     PseudoPot. # 3 for Pt read from file:
     ././Pt.upf
     MD5 check sum: c5224e9cd7a5e36e81f2def9f50bb494
     Pseudo is Projector augmented-wave + core cor, Zval = 10.0
     Generated using &quot;atomic&quot; code by A. Dal Corso  v.6.3
     Shape of augmentation charge: PSQ
     Using radial grid of 1277 points,  6 beta functions with: 
                l(1) =   0
                l(2) =   0
                l(3) =   1
                l(4) =   1
                l(5) =   2
                l(6) =   2
     Q(r) pseudized with 0 coefficients 


     atomic species   valence    mass     pseudopotential
        Cu            11.00    63.54600     Cu( 1.00)
        Ni            18.00    58.69300     Ni( 1.00)
        Pt            10.00   195.08000     Pt( 1.00)

     24 Sym. Ops. (no inversion) found



   Cartesian axes

     site n.     atom                  positions (alat units)
         1           Cu  tau(   1) = (   0.0000000   0.0000000   0.0000000  )
         2           Ni  tau(   2) = (   0.5000000   0.5000000   0.5000000  )
         3           Pt  tau(   3) = (   0.2500000   0.2500000   0.2500000  )

     number of k points=    47  Gaussian smearing, width (Ry)=  0.0100
                       cart. coord. in units 2pi/alat
        k(    1) = (   0.0000000   0.0000000   0.0000000), wk =   0.0020000
        k(    2) = (  -0.1000000   0.1000000  -0.1000000), wk =   0.0160000
        k(    3) = (  -0.2000000   0.2000000  -0.2000000), wk =   0.0160000
        k(    4) = (  -0.3000000   0.3000000  -0.3000000), wk =   0.0160000
        k(    5) = (  -0.4000000   0.4000000  -0.4000000), wk =   0.0160000
        k(    6) = (   0.5000000  -0.5000000   0.5000000), wk =   0.0080000
        k(    7) = (   0.0000000   0.2000000   0.0000000), wk =   0.0120000
        k(    8) = (  -0.1000000   0.3000000  -0.1000000), wk =   0.0480000
        k(    9) = (  -0.2000000   0.4000000  -0.2000000), wk =   0.0480000
        k(   10) = (  -0.3000000   0.5000000  -0.3000000), wk =   0.0480000
        k(   11) = (   0.6000000  -0.4000000   0.6000000), wk =   0.0480000
        k(   12) = (   0.5000000  -0.3000000   0.5000000), wk =   0.0480000
        k(   13) = (   0.4000000  -0.2000000   0.4000000), wk =   0.0480000
        k(   14) = (   0.3000000  -0.1000000   0.3000000), wk =   0.0480000
        k(   15) = (   0.2000000   0.0000000   0.2000000), wk =   0.0240000
        k(   16) = (   0.0000000   0.4000000   0.0000000), wk =   0.0120000
        k(   17) = (  -0.1000000   0.5000000  -0.1000000), wk =   0.0480000
        k(   18) = (  -0.2000000   0.6000000  -0.2000000), wk =   0.0480000
        k(   19) = (   0.7000000  -0.3000000   0.7000000), wk =   0.0480000
        k(   20) = (   0.6000000  -0.2000000   0.6000000), wk =   0.0480000
        k(   21) = (   0.5000000  -0.1000000   0.5000000), wk =   0.0480000
        k(   22) = (   0.4000000   0.0000000   0.4000000), wk =   0.0240000
        k(   23) = (   0.0000000   0.6000000   0.0000000), wk =   0.0120000
        k(   24) = (  -0.1000000   0.7000000  -0.1000000), wk =   0.0480000
        k(   25) = (   0.8000000  -0.2000000   0.8000000), wk =   0.0480000
        k(   26) = (   0.7000000  -0.1000000   0.7000000), wk =   0.0480000
        k(   27) = (   0.6000000  -0.0000000   0.6000000), wk =   0.0240000
        k(   28) = (   0.0000000   0.8000000   0.0000000), wk =   0.0120000
        k(   29) = (   0.9000000  -0.1000000   0.9000000), wk =   0.0480000
        k(   30) = (   0.8000000   0.0000000   0.8000000), wk =   0.0240000
        k(   31) = (   0.0000000  -1.0000000   0.0000000), wk =   0.0060000
        k(   32) = (  -0.2000000   0.4000000   0.0000000), wk =   0.0480000
        k(   33) = (  -0.3000000   0.5000000  -0.1000000), wk =   0.0960000
        k(   34) = (   0.6000000  -0.4000000   0.8000000), wk =   0.0960000
        k(   35) = (   0.5000000  -0.3000000   0.7000000), wk =   0.0480000
        k(   36) = (  -0.2000000   0.6000000   0.0000000), wk =   0.0480000
        k(   37) = (   0.7000000  -0.3000000   0.9000000), wk =   0.0960000
        k(   38) = (   0.6000000  -0.2000000   0.8000000), wk =   0.0960000
        k(   39) = (   0.5000000  -0.1000000   0.7000000), wk =   0.0960000
        k(   40) = (   0.4000000   0.0000000   0.6000000), wk =   0.0480000
        k(   41) = (   0.8000000  -0.2000000   1.0000000), wk =   0.0480000
        k(   42) = (   0.7000000  -0.1000000   0.9000000), wk =   0.0960000
        k(   43) = (   0.6000000   0.0000000   0.8000000), wk =   0.0480000
        k(   44) = (  -0.2000000  -1.0000000   0.0000000), wk =   0.0240000
        k(   45) = (   0.6000000  -0.2000000   1.0000000), wk =   0.0480000
        k(   46) = (   0.5000000  -0.1000000   0.9000000), wk =   0.0480000
        k(   47) = (  -0.4000000  -1.0000000   0.0000000), wk =   0.0240000

     Dense  grid:    20827 G-vectors     FFT dimensions: (  40,  40,  40)

     Estimated max dynamical RAM per process >     133.20 MB

     Check: negative core charge=   -0.000002

     Initial potential from superposition of free atoms

     starting charge   38.99935, renormalised to   39.00000
     Starting wfcs are   28 randomized atomic wfcs
     Checking if some PAW data can be deallocated... 

     total cpu time spent up to now is        3.6 secs

     Self-consistent Calculation

     iteration #  1     ecut=    60.00 Ry     beta= 0.70
     Davidson diagonalization with overlap
     ethr =  1.00E-02,  avg # of iterations =  6.0

     total cpu time spent up to now is       13.1 secs

     total energy              =   -1387.94398877 Ry
     estimated scf accuracy    <       1.93879718 Ry

     iteration #  2     ecut=    60.00 Ry     beta= 0.70
     Davidson diagonalization with overlap
     ethr =  4.97E-03,  avg # of iterations =  3.1

     total cpu time spent up to now is       23.9 secs

     total energy              =   -1385.91276161 Ry
     estimated scf accuracy    <      55.22588969 Ry

     iteration #  3     ecut=    60.00 Ry     beta= 0.70
     Davidson diagonalization with overlap
     ethr =  4.97E-03,  avg # of iterations =  4.1

     total cpu time spent up to now is       34.6 secs

     total energy              =   -1389.40618553 Ry
     estimated scf accuracy    <       0.64475923 Ry

     iteration #  4     ecut=    60.00 Ry     beta= 0.70
     Davidson diagonalization with overlap
     ethr =  1.65E-03,  avg # of iterations =  2.0

     total cpu time spent up to now is       42.5 secs

     total energy              =   -1389.45171772 Ry
     estimated scf accuracy    <       0.10939032 Ry

     iteration #  5     ecut=    60.00 Ry     beta= 0.70
     Davidson diagonalization with overlap
     ethr =  2.80E-04,  avg # of iterations =  1.5

     total cpu time spent up to now is       49.7 secs

     total energy              =   -1389.45310852 Ry
     estimated scf accuracy    <       0.03278538 Ry

     iteration #  6     ecut=    60.00 Ry     beta= 0.70
     Davidson diagonalization with overlap
     ethr =  8.41E-05,  avg # of iterations =  2.0

     total cpu time spent up to now is       57.3 secs

     total energy              =   -1389.45718625 Ry
     estimated scf accuracy    <       0.01154779 Ry

     iteration #  7     ecut=    60.00 Ry     beta= 0.70
     Davidson diagonalization with overlap
     ethr =  2.96E-05,  avg # of iterations =  2.8

     total cpu time spent up to now is       65.2 secs

     total energy              =   -1389.45864851 Ry
     estimated scf accuracy    <       0.00525889 Ry

     iteration #  8     ecut=    60.00 Ry     beta= 0.70
     Davidson diagonalization with overlap
     ethr =  1.35E-05,  avg # of iterations =  2.3

     total cpu time spent up to now is       72.9 secs

     total energy              =   -1389.45921476 Ry
     estimated scf accuracy    <       0.00027800 Ry

     iteration #  9     ecut=    60.00 Ry     beta= 0.70
     Davidson diagonalization with overlap
     ethr =  7.13E-07,  avg # of iterations =  6.0

     total cpu time spent up to now is       84.7 secs

     total energy              =   -1389.45936021 Ry
     estimated scf accuracy    <       0.00001238 Ry

     iteration # 10     ecut=    60.00 Ry     beta= 0.70
     Davidson diagonalization with overlap
     ethr =  3.17E-08,  avg # of iterations =  3.8

     total cpu time spent up to now is       93.3 secs

     total energy              =   -1389.45936270 Ry
     estimated scf accuracy    <       0.00001395 Ry

     iteration # 11     ecut=    60.00 Ry     beta= 0.70
     Davidson diagonalization with overlap
     ethr =  3.17E-08,  avg # of iterations =  1.0

     total cpu time spent up to now is      100.3 secs

     total energy              =   -1389.45936670 Ry
     estimated scf accuracy    <       0.00001612 Ry

     iteration # 12     ecut=    60.00 Ry     beta= 0.70
     Davidson diagonalization with overlap
     ethr =  3.17E-08,  avg # of iterations =  1.1

     total cpu time spent up to now is      107.1 secs

     total energy              =   -1389.45937140 Ry
     estimated scf accuracy    <       0.00002834 Ry

     iteration # 13     ecut=    60.00 Ry     beta= 0.70
     Davidson diagonalization with overlap
     ethr =  3.17E-08,  avg # of iterations =  1.0

     total cpu time spent up to now is      113.8 secs

     total energy              =   -1389.45936229 Ry
     estimated scf accuracy    <       0.00004158 Ry

     iteration # 14     ecut=    60.00 Ry     beta= 0.70
     Davidson diagonalization with overlap
     ethr =  3.17E-08,  avg # of iterations =  1.0

     total cpu time spent up to now is      120.3 secs

     total energy              =   -1389.45935464 Ry
     estimated scf accuracy    <       0.00001721 Ry

     iteration # 15     ecut=    60.00 Ry     beta= 0.70
     Davidson diagonalization with overlap
     ethr =  3.17E-08,  avg # of iterations =  2.0

     total cpu time spent up to now is      128.3 secs

     End of self-consistent calculation

          k = 0.0000 0.0000 0.0000 (  2637 PWs)   bands (ev):

   -91.7176 -52.1082 -52.1082 -52.1082   3.4345   7.2049   7.2049   7.3744
     7.3744   7.3744   8.5810   8.5810   8.5810   9.9387   9.9387  10.2869
    10.2869  10.2869  10.7894  10.7894  19.2443  20.4285  20.4285  20.4285
    20.5153  20.5153  20.5153  21.3960

          k =-0.1000 0.1000-0.1000 (  2661 PWs)   bands (ev):

   -91.7178 -52.1083 -52.1083 -52.1083   3.5802   7.2307   7.2307   7.3406
     7.3774   7.3774   8.5951   8.6106   8.6106   9.9208   9.9208  10.1842
    10.2712  10.2712  10.7866  10.7866  17.8445  19.4535  19.4535  19.4755
    21.2343  21.4057  21.4058  21.7126

          k =-0.2000 0.2000-0.2000 (  2629 PWs)   bands (ev):

   -91.7175 -52.1083 -52.1083 -52.1082   4.0021   7.2667   7.2667   7.2749
     7.4240   7.4240   8.5936   8.6915   8.6915   9.8322   9.8322   9.9381
    10.2585  10.2585  10.7877  10.7877  15.5132  18.5246  18.5246  19.4669
    21.0998  21.2933  21.2933  22.3027

          k =-0.3000 0.3000-0.3000 (  2629 PWs)   bands (ev):

   -91.7175 -52.1083 -52.1082 -52.1082   4.6373   7.2481   7.2592   7.2592
     7.5529   7.5529   8.4771   8.8025   8.8025   9.6435   9.6435   9.6964
    10.2932  10.2932  10.7991  10.7991  13.4929  17.7492  17.7492  19.3819
    20.8157  20.9932  20.9932  23.6907

          k =-0.4000 0.4000-0.4000 (  2599 PWs)   bands (ev):

   -91.7172 -52.1082 -52.1081 -52.1081   5.3132   7.2408   7.2408   7.3330
     7.6927   7.6927   8.1851   8.9189   8.9189   9.4212   9.4212   9.5662
    10.3482  10.3482  10.8124  10.8124  12.0232  17.2217  17.2217  19.2824
    20.6453  20.7886  20.7886  25.5483

          k = 0.5000-0.5000 0.5000 (  2608 PWs)   bands (ev):

   -91.7173 -52.1083 -52.1081 -52.1081   5.6385   7.2328   7.2328   7.5048
     7.7553   7.7553   7.8994   8.9894   8.9894   9.2997   9.2997   9.5298
    10.3741  10.3741  10.8180  10.8180  11.4595  17.0330  17.0330  19.2411
    20.5900  20.7182  20.7182  26.2529

          k = 0.0000 0.2000 0.0000 (  2653 PWs)   bands (ev):

   -91.7177 -52.1083 -52.1083 -52.1082   3.6295   7.1951   7.2812   7.3072
     7.3868   7.3868   8.5072   8.6728   8.6728   9.9160   9.9196  10.2081
    10.2441  10.2441  10.7299  10.8251  18.4348  18.4348  18.8039  19.1679
    20.6435  21.3839  22.1159  22.1159

          k =-0.1000 0.3000-0.1000 (  2630 PWs)   bands (ev):

   -91.7175 -52.1083 -52.1082 -52.1082   3.9620   7.1629   7.2720   7.3371
     7.3974   7.4397   8.4769   8.7592   8.7826   9.8451   9.8726  10.0289
    10.2207  10.2464  10.6841  10.8428  16.2572  17.5294  18.3549  19.3564
    20.3625  21.5282  22.2587  22.2630

          k =-0.2000 0.4000-0.2000 (  2615 PWs)   bands (ev):

   -91.7173 -52.1082 -52.1081 -52.1081   4.5339   7.0977   7.2989   7.3227
     7.4411   7.5876   8.4899   8.8042   8.9114   9.6477   9.7502   9.7880
    10.2667  10.2685  10.6788  10.8541  14.1170  16.8410  17.5454  19.1334
    21.3885  21.4953  22.0450  22.0534

          k =-0.3000 0.5000-0.3000 (  2605 PWs)   bands (ev):

   -91.7172 -52.1083 -52.1081 -52.1080   5.2205   7.0656   7.2924   7.3459
     7.5322   7.7376   8.4306   8.8364   9.0264   9.3947   9.5590   9.6322
    10.3187  10.3276  10.7274  10.8515  12.4186  16.4651  16.7373  18.9764
    21.3768  21.6810  21.6862  23.1958

          k = 0.6000-0.4000 0.6000 (  2604 PWs)   bands (ev):

   -91.7172 -52.1082 -52.1081 -52.1081   5.7061   7.0870   7.2666   7.4583
     7.5652   7.8067   8.2813   8.9380   9.0262   9.2883   9.3922   9.5531
    10.3358  10.3824  10.8086  10.8166  11.4894  16.1432  16.4872  18.9732
    21.1112  21.3393  21.8715  24.9519

          k = 0.5000-0.3000 0.5000 (  2602 PWs)   bands (ev):

   -91.7172 -52.1082 -52.1081 -52.1080   5.5905   7.1186   7.2553   7.3973
     7.6181   7.7381   8.3413   8.8859   9.0416   9.3110   9.4300   9.5637
    10.3024  10.4004  10.7408  10.8651  11.7026  15.8898  16.9332  19.1222
    20.8729  21.0780  22.2233  25.2177

          k = 0.4000-0.2000 0.4000 (  2622 PWs)   bands (ev):

   -91.7174 -52.1083 -52.1082 -52.1082   4.9869   7.1365   7.2595   7.3217
     7.5788   7.5993   8.5213   8.7639   8.9845   9.4713   9.6319   9.6541
    10.2639  10.3526  10.6814  10.8767  12.9410  16.0121  17.7466  19.4315
    20.7166  20.9343  22.5846  23.4937

          k = 0.3000-0.1000 0.3000 (  2615 PWs)   bands (ev):

   -91.7173 -52.1082 -52.1082 -52.1081   4.3178   7.1863   7.2656   7.3167
     7.4301   7.5029   8.5944   8.6673   8.8691   9.7098   9.8043   9.8363
    10.2498  10.2701  10.6817  10.8593  14.8133  16.4506  18.8172  19.8911
    20.6141  20.8899  22.0145  22.5674

          k = 0.2000 0.0000 0.2000 (  2635 PWs)   bands (ev):

   -91.7175 -52.1083 -52.1083 -52.1082   3.8192   7.2415   7.2581   7.3061
     7.3733   7.4168   8.5845   8.6103   8.7397   9.8676   9.8943  10.0597
    10.2366  10.2647  10.7263  10.8291  16.9901  17.1634  19.9142  20.0362
    20.6988  20.7422  21.3782  21.7538

          k = 0.0000 0.4000 0.0000 (  2613 PWs)   bands (ev):

   -91.7173 -52.1082 -52.1082 -52.1081   4.2034   7.0282   7.2252   7.4212
     7.4212   7.5030   8.3610   8.9212   8.9212   9.8307   9.8557  10.0988
    10.1649  10.1649  10.5773  10.8579  16.5585  16.5585  16.9796  18.4345
    19.4227  23.0169  23.0169  23.1468

          k =-0.1000 0.5000-0.1000 (  2625 PWs)   bands (ev):

   -91.7174 -52.1083 -52.1082 -52.1082   4.6969   6.9024   7.2177   7.4152
     7.4378   7.6804   8.3417   9.0368   9.0662   9.6668   9.7948   9.9320
    10.2062  10.2272  10.5307  10.8642  14.6949  15.7966  16.2253  18.6140
    19.6065  23.1405  23.3119  23.7650

          k =-0.2000 0.6000-0.2000 (  2606 PWs)   bands (ev):

   -91.7173 -52.1082 -52.1081 -52.1080   5.3511   6.8192   7.2576   7.3845
     7.4543   7.8628   8.4038   9.0748   9.1888   9.3735   9.6634   9.7772
    10.2601  10.3144  10.6237  10.8670  12.8635  15.3679  15.3713  18.6269
    20.8992  22.8537  23.0988  23.8351

          k = 0.7000-0.3000 0.7000 (  2618 PWs)   bands (ev):

   -91.7173 -52.1084 -52.1082 -52.1081   5.9154   6.8241   7.3306   7.3465
     7.4617   7.9662   8.5122   9.0727   9.0773   9.3067   9.5386   9.6558
    10.2331  10.4181  10.7960  10.8546  11.5903  14.6337  15.3962  18.6746
    22.3773  22.5659  22.6742  24.1451

          k = 0.6000-0.2000 0.6000 (  2605 PWs)   bands (ev):

   -91.7172 -52.1083 -52.1081 -52.1081   5.9756   6.9361   7.3147   7.3609
     7.4662   7.9004   8.6536   8.8853   9.0900   9.4177   9.4417   9.6033
    10.1931  10.4297  10.7490  10.9022  11.4797  14.1792  15.9004  18.8358
    21.9959  22.2432  23.7733  25.0930

          k = 0.5000-0.1000 0.5000 (  2611 PWs)   bands (ev):

   -91.7173 -52.1083 -52.1081 -52.1081   5.5115   7.0085   7.2965   7.3112
     7.5404   7.7056   8.7145   8.7779   9.1689   9.3231   9.6010   9.6405
    10.1807  10.4349  10.5733  10.9273  12.5241  14.1141  16.7886  19.1269
    21.7015  21.8729  23.1721  24.1217

          k = 0.4000 0.0000 0.4000 (  2615 PWs)   bands (ev):

   -91.7173 -52.1083 -52.1082 -52.1081   4.8632   7.0816   7.2864   7.3184
     7.5187   7.5505   8.6694   8.7033   9.0511   9.4980   9.7269   9.7334
    10.2086  10.3609  10.5676  10.9055  14.0410  14.5945  17.8887  19.5527
    21.2987  21.4648  22.0711  22.9202

          k = 0.0000 0.6000 0.0000 (  2626 PWs)   bands (ev):

   -91.7174 -52.1083 -52.1082 -52.1082   5.1104   6.7309   7.1318   7.4680
     7.4680   7.8492   8.2335   9.1995   9.1995   9.6283   9.7952  10.0283
    10.2218  10.2218  10.4129  10.8686  14.6283  14.9036  14.9036  18.2254
    18.8577  24.3873  24.3873  25.3366

          k =-0.1000 0.7000-0.1000 (  2606 PWs)   bands (ev):

   -91.7173 -52.1083 -52.1081 -52.1080   5.7053   6.6152   7.1063   7.4678
     7.4776   8.0559   8.2145   9.2628   9.2646   9.4152   9.7475   9.9445
    10.2423  10.3882  10.5404  10.8933  13.1724  14.1536  14.3347  18.3832
    19.2254  24.5871  24.6902  26.0438

          k = 0.8000-0.2000 0.8000 (  2605 PWs)   bands (ev):

   -91.7172 -52.1083 -52.1081 -52.1080   6.2644   6.6144   7.1454   7.4333
     7.4366   8.2194   8.3128   9.0329   9.3127   9.4102   9.6541   9.8524
    10.1442  10.5630  10.8097  10.9824  11.8014  13.3331  14.2649  18.4692
    20.6032  24.1617  24.2720  26.1446

          k = 0.7000-0.1000 0.7000 (  2601 PWs)   bands (ev):

   -91.7172 -52.1083 -52.1081 -52.1080   6.3268   6.8680   7.2379   7.3336
     7.3854   8.1865   8.5509   8.8398   9.3536   9.4869   9.5665   9.7408
    10.0741  10.5261  10.9275  10.9413  11.4295  12.7311  14.7618  18.5984
    22.3820  23.6379  23.6718  25.2495

          k = 0.6000-0.0000 0.6000 (  2600 PWs)   bands (ev):

   -91.7172 -52.1083 -52.1081 -52.1080   6.0411   6.9475   7.2641   7.3388
     7.4214   7.9418   8.7701   8.8034   9.2210   9.4552   9.5520   9.6657
    10.0921  10.3827  10.7026  10.9575  12.2147  12.7067  15.6790  18.8167
    22.8740  23.0718  23.4019  24.6978

          k = 0.0000 0.8000 0.0000 (  2606 PWs)   bands (ev):

   -91.7172 -52.1084 -52.1080 -52.1080   6.2277   6.4864   7.0203   7.5094
     7.5094   8.0109   8.2796   9.2779   9.3055   9.3055   9.7718   9.9837
    10.3154  10.6155  10.6155  10.9517  12.6609  13.5672  13.5672  18.1447
    18.6351  26.1373  26.1373  27.5691

          k = 0.9000-0.1000 0.9000 (  2596 PWs)   bands (ev):

   -91.7172 -52.1083 -52.1080 -52.1080   6.4261   6.7753   7.0272   7.4306
     7.5002   7.9537   8.4943   8.9665   9.3300   9.3902   9.7375   9.9526
    10.2107  10.8170  10.8836  11.1367  11.8748  12.7796  13.3341  18.3096
    19.0819  25.9901  26.2196  27.7538

          k = 0.8000 0.0000 0.8000 (  2606 PWs)   bands (ev):

   -91.7172 -52.1084 -52.1081 -52.1081   6.4279   7.0440   7.0958   7.2216
     7.4520   8.2299   8.5343   8.7317   9.3974   9.4866   9.6617   9.8886
    10.0753  10.8280  10.9697  11.2059  11.6137  11.9787  13.8092  18.4344
    20.5173  24.9549  25.4847  25.9627

          k = 0.0000-1.0000 0.0000 (  2586 PWs)   bands (ev):

   -91.7171 -52.1083 -52.1079 -52.1079   6.3854   6.9177   7.2091   7.5261
     7.5261   7.5276   8.6338   8.9453   9.3099   9.3099   9.7652   9.9702
    10.2870  10.9651  10.9651  11.2242  11.6211  12.9262  12.9262  18.1257
    18.5796  27.6313  27.6313  27.7099

          k =-0.2000 0.4000 0.0000 (  2616 PWs)   bands (ev):

   -91.7174 -52.1082 -52.1082 -52.1081   4.3738   7.0625   7.2731   7.3648
     7.4082   7.5490   8.4512   8.8409   8.9440   9.7162   9.8200   9.9017
    10.2244  10.2466  10.6116  10.8660  15.3581  15.7564  17.8157  19.4918
    20.0734  21.7730  22.3345  23.3409

          k =-0.3000 0.5000-0.1000 (  2604 PWs)   bands (ev):

   -91.7172 -52.1082 -52.1081 -52.1081   4.9903   6.9738   7.3035   7.3493
     7.4464   7.6925   8.4995   8.8946   9.0872   9.4759   9.7026   9.7469
    10.2200  10.3479  10.5864  10.8868  13.5104  15.1044  16.8765  19.5006
    20.8238  21.6321  22.5778  23.8107

          k = 0.6000-0.4000 0.8000 (  2618 PWs)   bands (ev):

   -91.7174 -52.1083 -52.1082 -52.1081   5.6360   6.9343   7.3069   7.3641
     7.4936   7.8253   8.5551   8.9089   9.1418   9.2866   9.5536   9.6319
    10.2242  10.4233  10.6747  10.8908  12.0034  14.8728  16.0659  19.3530
    20.8912  22.5246  23.0882  23.7266

          k = 0.5000-0.3000 0.7000 (  2604 PWs)   bands (ev):

   -91.7172 -52.1083 -52.1081 -52.1081   5.9390   6.9357   7.2933   7.4202
     7.4886   7.8851   8.5714   8.9300   9.0351   9.3402   9.4540   9.5806
    10.2214  10.4676  10.7678  10.8745  11.3664  14.8701  15.6929  19.3013
    20.8262  22.8733  23.1585  24.9462

          k =-0.2000 0.6000 0.0000 (  2608 PWs)   bands (ev):

   -91.7173 -52.1082 -52.1081 -52.1080   5.2406   6.7720   7.1984   7.4155
     7.4608   7.8533   8.3375   9.1377   9.2076   9.4743   9.7454   9.8719
    10.1929  10.3430  10.5082  10.8789  13.8134  14.4000  15.4735  19.0414
    19.5680  22.8284  24.1812  25.1206

          k = 0.7000-0.3000 0.9000 (  2615 PWs)   bands (ev):

   -91.7173 -52.1083 -52.1082 -52.1081   5.8705   6.7036   7.2232   7.3742
     7.4817   8.0176   8.4217   9.1767   9.2041   9.3103   9.6583   9.7870
    10.1358  10.4937  10.6527  10.9170  12.3685  13.8306  14.7477  19.2311
    20.7472  22.2981  24.5516  25.4110

          k = 0.6000-0.2000 0.8000 (  2607 PWs)   bands (ev):

   -91.7173 -52.1083 -52.1081 -52.1081   6.2505   6.7572   7.2727   7.3222
     7.4821   8.0856   8.5955   8.9292   9.2446   9.3708   9.5947   9.6878
    10.0722  10.5971  10.8303  10.9949  11.3345  13.5039  14.5542  19.3560
    21.7475  22.5465  24.3247  24.9120

          k = 0.5000-0.1000 0.7000 (  2608 PWs)   bands (ev):

   -91.7173 -52.1083 -52.1081 -52.1081   6.1100   6.8393   7.2796   7.3415
     7.4632   7.9857   8.6935   8.8958   9.1935   9.3814   9.6043   9.6521
    10.0706  10.5154  10.7218  10.9577  11.7741  13.2406  15.0737  19.6180
    21.3917  22.9234  24.1452  24.4909

          k = 0.4000 0.0000 0.6000 (  2607 PWs)   bands (ev):

   -91.7173 -52.1083 -52.1081 -52.1081   5.5913   6.8785   7.2985   7.3552
     7.4585   7.8184   8.5874   8.9675   9.2138   9.3176   9.6573   9.6883
    10.1381  10.4875  10.5307  10.9285  12.9027  13.5195  15.9385  19.9924
    20.8235  21.8056  23.5046  24.9230

          k = 0.8000-0.2000 1.0000 (  2611 PWs)   bands (ev):

   -91.7173 -52.1084 -52.1081 -52.1080   6.2778   6.5294   7.0823   7.4154
     7.5187   8.1806   8.2616   9.1122   9.3120   9.3955   9.7193   9.9200
    10.1456  10.6383  10.7221  10.9825  12.4083  13.2432  13.6654  18.8452
    19.3312  24.1346  25.9839  27.0657

          k = 0.7000-0.1000 0.9000 (  2608 PWs)   bands (ev):

   -91.7173 -52.1083 -52.1081 -52.1081   6.4798   6.7608   7.1230   7.2951
     7.5204   8.3202   8.3960   8.8544   9.3414   9.4920   9.6639   9.8359
    10.0151  10.7482  10.9550  11.2354  11.5436  12.5083  13.5094  19.1235
    20.6134  23.4998  25.2371  26.1718

          k = 0.6000 0.0000 0.8000 (  2604 PWs)   bands (ev):

   -91.7172 -52.1083 -52.1081 -52.1081   6.4163   6.8577   7.2159   7.2546
     7.4817   8.2386   8.6101   8.7868   9.3763   9.4567   9.6428   9.7184
     9.9735  10.6712  10.8973  11.0261  11.8382  12.0732  14.1283  19.3471
    22.4544  22.7226  23.6373  25.3498

          k =-0.2000-1.0000 0.0000 (  2600 PWs)   bands (ev):

   -91.7172 -52.1083 -52.1081 -52.1080   6.4298   6.9979   7.1206   7.2136
     7.5422   8.0034   8.6881   8.7198   9.3120   9.4723   9.7165   9.9290
    10.1145  10.8670  11.0128  11.4051  11.4947  12.6777  12.8454  18.7929
    19.2681  25.1679  26.2791  27.2969

          k = 0.6000-0.2000 1.0000 (  2619 PWs)   bands (ev):

   -91.7174 -52.1084 -52.1082 -52.1081   6.3681   6.6569   7.2142   7.3022
     7.5311   8.1702   8.5280   8.9671   9.3200   9.3414   9.6550   9.7621
     9.9935  10.6652  10.8136  11.0325  12.0145  12.6299  13.9073  20.5204
    20.8302  21.8554  24.7346  25.6177

          k = 0.5000-0.1000 0.9000 (  2618 PWs)   bands (ev):

   -91.7173 -52.1084 -52.1082 -52.1081   6.5407   6.6975   7.2150   7.2526
     7.5546   8.2512   8.6597   8.7993   9.3466   9.4078   9.6402   9.7080
     9.9482  10.7251  10.9934  11.2210  11.4372  12.4766  13.4568  20.7072
    21.3230  22.7583  22.8149  26.0576

          k =-0.4000-1.0000 0.0000 (  2610 PWs)   bands (ev):

   -91.7173 -52.1084 -52.1082 -52.1081   6.5656   6.7972   7.1522   7.2207
     7.5793   8.4274   8.4909   8.7610   9.3187   9.5942   9.6355   9.6809
     9.9541  10.7814  11.0897  11.2780  11.7539  12.2001  12.7515  20.4455
    21.0169  22.6511  23.4920  26.9284

     the Fermi energy is    10.9608 ev

!    total energy              =   -1389.45935766 Ry

     total all-electron energy =    -43178.959139 Ry
     estimated scf accuracy    <       0.00000004 Ry
     smearing contrib. (-TS)   =      -0.00507324 Ry
     internal energy E=F+TS    =   -1389.45428442 Ry

     The total energy is F=E-TS. E is the sum of the following terms:
     one-electron contribution =    -295.97734403 Ry
     hartree contribution      =     183.50707462 Ry
     xc contribution           =    -102.68034406 Ry
     ewald contribution        =    -308.67335597 Ry
     one-center paw contrib.   =    -865.63031497 Ry

     convergence has been achieved in  15 iterations

     Writing output data file ././cunipt.save/

     init_run     :      3.34s CPU      3.41s WALL (       1 calls)
     electrons    :    123.09s CPU    124.65s WALL (       1 calls)

     Called by init_run:
     wfcinit      :      2.26s CPU      2.28s WALL (       1 calls)
     potinit      :      0.33s CPU      0.35s WALL (       1 calls)
     hinit0       :      0.67s CPU      0.67s WALL (       1 calls)

     Called by electrons:
     c_bands      :    101.12s CPU    101.35s WALL (      15 calls)
     sum_band     :     15.83s CPU     16.59s WALL (      15 calls)
     v_of_rho     :      0.31s CPU      0.31s WALL (      16 calls)
     newd         :      0.94s CPU      1.54s WALL (      16 calls)
     PAW_pot      :      5.19s CPU      5.22s WALL (      16 calls)
     mix_rho      :      0.05s CPU      0.05s WALL (      15 calls)

     Called by c_bands:
     init_us_2    :      1.19s CPU      1.20s WALL (    1457 calls)
     cegterg      :     96.97s CPU     97.20s WALL (     705 calls)

     Called by *egterg:
     cdiaghg      :      1.91s CPU      1.91s WALL (    2575 calls)
     h_psi        :     57.40s CPU     57.56s WALL (    2622 calls)
     s_psi        :      8.79s CPU      8.80s WALL (    2622 calls)
     g_psi        :      0.33s CPU      0.33s WALL (    1870 calls)

     Called by h_psi:
     h_psi:calbec :      8.12s CPU      8.13s WALL (    2622 calls)
     vloc_psi     :     40.21s CPU     40.34s WALL (    2622 calls)
     add_vuspsi   :      8.84s CPU      8.86s WALL (    2622 calls)

     General routines
     calbec       :     11.45s CPU     11.47s WALL (    3327 calls)
     fft          :      0.14s CPU      0.14s WALL (     176 calls)
     ffts         :      0.01s CPU      0.01s WALL (      15 calls)
     fftw         :     44.16s CPU     44.31s WALL (  115298 calls)

     Parallel routines

     PWSCF        :   2m 6.65s CPU   2m 8.32s WALL


   This run was terminated on:  20:52: 8  13Sep2024            

=------------------------------------------------------------------------------=
   JOB DONE.
=------------------------------------------------------------------------------=
