
     Program PWSCF v.6.7MaX starts on 13Sep2024 at 21: 3:17 

     This program is part of the open-source Quantum ESPRESSO suite
     for quantum simulation of materials; please cite
         "P. Giannozzi et al., J. Phys.:Condens. Matter 21 395502 (2009);
         "P. Giannozzi et al., J. Phys.:Condens. Matter 29 465901 (2017);
          URL http://www.quantum-espresso.org", 
     in publications or presentations arising from this work. More details at
     http://www.quantum-espresso.org/quote

     Parallel version (MPI), running on     1 processors

     MPI processes distributed on     1 nodes
     Waiting for input...
     Reading input from standard input

     Current dimensions of program PWSCF are:
     Max number of different atomic species (ntypx) = 10
     Max number of k-points (npk) =  40000
     Max angular momentum in pseudopotentials (lmaxx) =  3
     file Cu.upf: wavefunction(s)  4S 3D renormalized
     file Ni.upf: wavefunction(s)  3P 3D renormalized
     file Pt.upf: wavefunction(s)  6S 5D renormalized

     Subspace diagonalization in iterative solution of the eigenvalue problem:
     a serial algorithm will be used


     G-vector sticks info
     --------------------
     sticks:   dense  smooth     PW     G-vecs:    dense   smooth      PW
     Sum        1111    1111    337                24357    24357    3943



     bravais-lattice index     =            2
     lattice parameter (alat)  =      11.6000  a.u.
     unit-cell volume          =     390.2240 (a.u.)^3
     number of atoms/cell      =            3
     number of atomic types    =            3
     number of electrons       =        39.00
     number of Kohn-Sham states=           28
     kinetic-energy cutoff     =      60.0000  Ry
     charge density cutoff     =     240.0000  Ry
     scf convergence threshold =      1.0E-07
     mixing beta               =       0.7000
     number of iterations used =            8  plain     mixing
     Exchange-correlation= SLA  PW   PBX  PBC
                           (   1   4   3   4   0   0   0)

     celldm(1)=  11.600000  celldm(2)=   0.000000  celldm(3)=   0.000000
     celldm(4)=   0.000000  celldm(5)=   0.000000  celldm(6)=   0.000000

     crystal axes: (cart. coord. in units of alat)
               a(1) = (  -0.500000   0.000000   0.500000 )  
               a(2) = (   0.000000   0.500000   0.500000 )  
               a(3) = (  -0.500000   0.500000   0.000000 )  

     reciprocal axes: (cart. coord. in units 2 pi/alat)
               b(1) = ( -1.000000 -1.000000  1.000000 )  
               b(2) = (  1.000000  1.000000  1.000000 )  
               b(3) = ( -1.000000  1.000000 -1.000000 )  


     PseudoPot. # 1 for Cu read from file:
     ././Cu.upf
     MD5 check sum: cfffd1f38ee05704b3e17f46f1730a6f
     Pseudo is Projector augmented-wave + core cor, Zval = 11.0
     Generated using &quot;atomic&quot; code by A. Dal Corso  v.6.3
     Shape of augmentation charge: PSQ
     Using radial grid of 1199 points,  6 beta functions with: 
                l(1) =   0
                l(2) =   0
                l(3) =   1
                l(4) =   1
                l(5) =   2
                l(6) =   2
     Q(r) pseudized with 0 coefficients 


     PseudoPot. # 2 for Ni read from file:
     ././Ni.upf
     MD5 check sum: 6e86b733589c3ad8389697b807d86aa7
     Pseudo is Projector augmented-wave + core cor, Zval = 18.0
     Generated using &quot;atomic&quot; code by A. Dal Corso  v.6.3
     Shape of augmentation charge: PSQ
     Using radial grid of 1195 points,  6 beta functions with: 
                l(1) =   0
                l(2) =   0
                l(3) =   1
                l(4) =   1
                l(5) =   2
                l(6) =   2
     Q(r) pseudized with 0 coefficients 


     PseudoPot. # 3 for Pt read from file:
     ././Pt.upf
     MD5 check sum: c5224e9cd7a5e36e81f2def9f50bb494
     Pseudo is Projector augmented-wave + core cor, Zval = 10.0
     Generated using &quot;atomic&quot; code by A. Dal Corso  v.6.3
     Shape of augmentation charge: PSQ
     Using radial grid of 1277 points,  6 beta functions with: 
                l(1) =   0
                l(2) =   0
                l(3) =   1
                l(4) =   1
                l(5) =   2
                l(6) =   2
     Q(r) pseudized with 0 coefficients 


     atomic species   valence    mass     pseudopotential
        Cu            11.00    63.54600     Cu( 1.00)
        Ni            18.00    58.69300     Ni( 1.00)
        Pt            10.00   195.08000     Pt( 1.00)

     24 Sym. Ops. (no inversion) found



   Cartesian axes

     site n.     atom                  positions (alat units)
         1           Cu  tau(   1) = (   0.0000000   0.0000000   0.0000000  )
         2           Ni  tau(   2) = (   0.5000000   0.5000000   0.5000000  )
         3           Pt  tau(   3) = (   0.2500000   0.2500000   0.2500000  )

     number of k points=    47  Gaussian smearing, width (Ry)=  0.0100
                       cart. coord. in units 2pi/alat
        k(    1) = (   0.0000000   0.0000000   0.0000000), wk =   0.0020000
        k(    2) = (  -0.1000000   0.1000000  -0.1000000), wk =   0.0160000
        k(    3) = (  -0.2000000   0.2000000  -0.2000000), wk =   0.0160000
        k(    4) = (  -0.3000000   0.3000000  -0.3000000), wk =   0.0160000
        k(    5) = (  -0.4000000   0.4000000  -0.4000000), wk =   0.0160000
        k(    6) = (   0.5000000  -0.5000000   0.5000000), wk =   0.0080000
        k(    7) = (   0.0000000   0.2000000   0.0000000), wk =   0.0120000
        k(    8) = (  -0.1000000   0.3000000  -0.1000000), wk =   0.0480000
        k(    9) = (  -0.2000000   0.4000000  -0.2000000), wk =   0.0480000
        k(   10) = (  -0.3000000   0.5000000  -0.3000000), wk =   0.0480000
        k(   11) = (   0.6000000  -0.4000000   0.6000000), wk =   0.0480000
        k(   12) = (   0.5000000  -0.3000000   0.5000000), wk =   0.0480000
        k(   13) = (   0.4000000  -0.2000000   0.4000000), wk =   0.0480000
        k(   14) = (   0.3000000  -0.1000000   0.3000000), wk =   0.0480000
        k(   15) = (   0.2000000   0.0000000   0.2000000), wk =   0.0240000
        k(   16) = (   0.0000000   0.4000000   0.0000000), wk =   0.0120000
        k(   17) = (  -0.1000000   0.5000000  -0.1000000), wk =   0.0480000
        k(   18) = (  -0.2000000   0.6000000  -0.2000000), wk =   0.0480000
        k(   19) = (   0.7000000  -0.3000000   0.7000000), wk =   0.0480000
        k(   20) = (   0.6000000  -0.2000000   0.6000000), wk =   0.0480000
        k(   21) = (   0.5000000  -0.1000000   0.5000000), wk =   0.0480000
        k(   22) = (   0.4000000   0.0000000   0.4000000), wk =   0.0240000
        k(   23) = (   0.0000000   0.6000000   0.0000000), wk =   0.0120000
        k(   24) = (  -0.1000000   0.7000000  -0.1000000), wk =   0.0480000
        k(   25) = (   0.8000000  -0.2000000   0.8000000), wk =   0.0480000
        k(   26) = (   0.7000000  -0.1000000   0.7000000), wk =   0.0480000
        k(   27) = (   0.6000000  -0.0000000   0.6000000), wk =   0.0240000
        k(   28) = (   0.0000000   0.8000000   0.0000000), wk =   0.0120000
        k(   29) = (   0.9000000  -0.1000000   0.9000000), wk =   0.0480000
        k(   30) = (   0.8000000   0.0000000   0.8000000), wk =   0.0240000
        k(   31) = (   0.0000000  -1.0000000   0.0000000), wk =   0.0060000
        k(   32) = (  -0.2000000   0.4000000   0.0000000), wk =   0.0480000
        k(   33) = (  -0.3000000   0.5000000  -0.1000000), wk =   0.0960000
        k(   34) = (   0.6000000  -0.4000000   0.8000000), wk =   0.0960000
        k(   35) = (   0.5000000  -0.3000000   0.7000000), wk =   0.0480000
        k(   36) = (  -0.2000000   0.6000000   0.0000000), wk =   0.0480000
        k(   37) = (   0.7000000  -0.3000000   0.9000000), wk =   0.0960000
        k(   38) = (   0.6000000  -0.2000000   0.8000000), wk =   0.0960000
        k(   39) = (   0.5000000  -0.1000000   0.7000000), wk =   0.0960000
        k(   40) = (   0.4000000   0.0000000   0.6000000), wk =   0.0480000
        k(   41) = (   0.8000000  -0.2000000   1.0000000), wk =   0.0480000
        k(   42) = (   0.7000000  -0.1000000   0.9000000), wk =   0.0960000
        k(   43) = (   0.6000000   0.0000000   0.8000000), wk =   0.0480000
        k(   44) = (  -0.2000000  -1.0000000   0.0000000), wk =   0.0240000
        k(   45) = (   0.6000000  -0.2000000   1.0000000), wk =   0.0480000
        k(   46) = (   0.5000000  -0.1000000   0.9000000), wk =   0.0480000
        k(   47) = (  -0.4000000  -1.0000000   0.0000000), wk =   0.0240000

     Dense  grid:    24357 G-vectors     FFT dimensions: (  45,  45,  45)

     Estimated max dynamical RAM per process >     156.44 MB

     Check: negative core charge=   -0.000002

     Initial potential from superposition of free atoms

     starting charge   38.99935, renormalised to   39.00000
     Starting wfcs are   28 randomized atomic wfcs
     Checking if some PAW data can be deallocated... 

     total cpu time spent up to now is        4.8 secs

     Self-consistent Calculation

     iteration #  1     ecut=    60.00 Ry     beta= 0.70
     Davidson diagonalization with overlap
     ethr =  1.00E-02,  avg # of iterations =  6.3

     total cpu time spent up to now is       17.2 secs

     total energy              =   -1387.80035436 Ry
     estimated scf accuracy    <       2.05982629 Ry

     iteration #  2     ecut=    60.00 Ry     beta= 0.70
     Davidson diagonalization with overlap
     ethr =  5.28E-03,  avg # of iterations =  3.3

     total cpu time spent up to now is       32.4 secs

     total energy              =   -1386.09945648 Ry
     estimated scf accuracy    <      59.63875397 Ry

     iteration #  3     ecut=    60.00 Ry     beta= 0.70
     Davidson diagonalization with overlap
     ethr =  5.28E-03,  avg # of iterations =  4.3

     total cpu time spent up to now is       46.1 secs

     total energy              =   -1389.36600596 Ry
     estimated scf accuracy    <       0.72663831 Ry

     iteration #  4     ecut=    60.00 Ry     beta= 0.70
     Davidson diagonalization with overlap
     ethr =  1.86E-03,  avg # of iterations =  1.0

     total cpu time spent up to now is       55.3 secs

     total energy              =   -1389.40727800 Ry
     estimated scf accuracy    <       0.13070091 Ry

     iteration #  5     ecut=    60.00 Ry     beta= 0.70
     Davidson diagonalization with overlap
     ethr =  3.35E-04,  avg # of iterations =  1.5

     total cpu time spent up to now is       65.7 secs

     total energy              =   -1389.41018913 Ry
     estimated scf accuracy    <       0.02935536 Ry

     iteration #  6     ecut=    60.00 Ry     beta= 0.70
     Davidson diagonalization with overlap
     ethr =  7.53E-05,  avg # of iterations =  2.6

     total cpu time spent up to now is       76.3 secs

     total energy              =   -1389.41322711 Ry
     estimated scf accuracy    <       0.01021057 Ry

     iteration #  7     ecut=    60.00 Ry     beta= 0.70
     Davidson diagonalization with overlap
     ethr =  2.62E-05,  avg # of iterations =  3.0

     total cpu time spent up to now is       87.0 secs

     total energy              =   -1389.41419726 Ry
     estimated scf accuracy    <       0.01094625 Ry

     iteration #  8     ecut=    60.00 Ry     beta= 0.70
     Davidson diagonalization with overlap
     ethr =  2.62E-05,  avg # of iterations =  1.1

     total cpu time spent up to now is       97.4 secs

     total energy              =   -1389.41519251 Ry
     estimated scf accuracy    <       0.00190819 Ry

     iteration #  9     ecut=    60.00 Ry     beta= 0.70
     Davidson diagonalization with overlap
     ethr =  4.89E-06,  avg # of iterations =  4.3

     total cpu time spent up to now is      108.4 secs

     total energy              =   -1389.41544673 Ry
     estimated scf accuracy    <       0.00013499 Ry

     iteration # 10     ecut=    60.00 Ry     beta= 0.70
     Davidson diagonalization with overlap
     ethr =  3.46E-07,  avg # of iterations =  5.6

     total cpu time spent up to now is      121.7 secs

     total energy              =   -1389.41549969 Ry
     estimated scf accuracy    <       0.00003425 Ry

     iteration # 11     ecut=    60.00 Ry     beta= 0.70
     Davidson diagonalization with overlap
     ethr =  8.78E-08,  avg # of iterations =  1.7

     total cpu time spent up to now is      131.5 secs

     total energy              =   -1389.41549514 Ry
     estimated scf accuracy    <       0.00002471 Ry

     iteration # 12     ecut=    60.00 Ry     beta= 0.70
     Davidson diagonalization with overlap
     ethr =  6.34E-08,  avg # of iterations =  1.1

     total cpu time spent up to now is      140.5 secs

     total energy              =   -1389.41549600 Ry
     estimated scf accuracy    <       0.00000338 Ry

     iteration # 13     ecut=    60.00 Ry     beta= 0.70
     Davidson diagonalization with overlap
     ethr =  8.66E-09,  avg # of iterations =  2.4

     total cpu time spent up to now is      150.6 secs

     total energy              =   -1389.41549637 Ry
     estimated scf accuracy    <       0.00000011 Ry

     iteration # 14     ecut=    60.00 Ry     beta= 0.70
     Davidson diagonalization with overlap
     ethr =  2.90E-10,  avg # of iterations =  4.7

     total cpu time spent up to now is      165.4 secs

     End of self-consistent calculation

          k = 0.0000 0.0000 0.0000 (  3119 PWs)   bands (ev):

   -93.9555 -54.3467 -54.3467 -54.3467   2.0117   5.5286   5.5286   5.6165
     5.6165   5.6165   6.5912   6.5912   6.5912   7.6295   7.6295   7.9723
     7.9723   7.9723   8.3510   8.3510  15.5027  16.9816  16.9816  16.9816
    17.0907  17.0907  17.0907  17.9075

          k =-0.1000 0.1000-0.1000 (  3071 PWs)   bands (ev):

   -93.9551 -54.3466 -54.3466 -54.3464   2.1399   5.5443   5.5443   5.5866
     5.6248   5.6248   6.6023   6.6130   6.6130   7.6203   7.6203   7.8947
     7.9559   7.9559   8.3507   8.3507  14.5503  15.8448  16.1351  16.1351
    17.8273  17.8660  17.8662  18.3702

          k =-0.2000 0.2000-0.2000 (  3053 PWs)   bands (ev):

   -93.9550 -54.3464 -54.3464 -54.3464   2.5108   5.5260   5.5534   5.5534
     5.6842   5.6842   6.6035   6.6734   6.6734   7.5648   7.5648   7.7061
     7.9357   7.9357   8.3537   8.3537  12.4953  15.3277  15.3277  15.8664
    17.7806  17.9347  17.9347  18.6380

          k =-0.3000 0.3000-0.3000 (  3040 PWs)   bands (ev):

   -93.9549 -54.3465 -54.3463 -54.3463   3.0732   5.4930   5.5395   5.5395
     5.7964   5.7964   6.5229   6.7594   6.7594   7.4284   7.4284   7.5099
     7.9582   7.9582   8.3609   8.3609  10.6890  14.6688  14.6688  15.9557
    17.2197  17.6460  17.6460  19.9262

          k =-0.4000 0.4000-0.4000 (  3064 PWs)   bands (ev):

   -93.9551 -54.3466 -54.3464 -54.3464   3.6789   5.5242   5.5242   5.5517
     5.9077   5.9077   6.3039   6.8561   6.8561   7.2542   7.2542   7.3832
     8.0041   8.0041   8.3668   8.3668   9.3805  14.2279  14.2279  16.0663
    16.8011  17.4276  17.4276  21.6193

          k = 0.5000-0.5000 0.5000 (  3040 PWs)   bands (ev):

   -93.9549 -54.3466 -54.3462 -54.3462   3.9755   5.5180   5.5180   5.6854
     5.9562   5.9562   6.0765   6.9208   6.9208   7.1517   7.1517   7.3362
     8.0267   8.0267   8.3686   8.3686   8.8857  14.0714  14.0714  16.1439
    16.6188  17.3508  17.3508  22.6499

          k = 0.0000 0.2000 0.0000 (  3063 PWs)   bands (ev):

   -93.9551 -54.3465 -54.3465 -54.3464   2.1831   5.5027   5.5797   5.5891
     5.6267   5.6267   6.5302   6.6625   6.6625   7.6110   7.6279   7.8944
     7.9437   7.9437   8.3081   8.3801  15.1524  15.2460  15.2460  15.7312
    17.6094  17.8284  18.7470  18.7470

          k =-0.1000 0.3000-0.1000 (  3061 PWs)   bands (ev):

   -93.9550 -54.3465 -54.3465 -54.3464   2.4751   5.4461   5.5714   5.6065
     5.6436   5.6969   6.5034   6.7299   6.7469   7.5628   7.6072   7.7626
     7.9234   7.9261   8.2757   8.3953  13.1875  14.4589  14.9105  15.9272
    17.3042  17.9528  18.8404  18.9287

          k =-0.2000 0.4000-0.2000 (  3046 PWs)   bands (ev):

   -93.9549 -54.3464 -54.3464 -54.3464   2.9805   5.3808   5.5772   5.5877
     5.7001   5.8228   6.5138   6.7677   6.8468   7.4237   7.5278   7.5737
     7.9313   7.9508   8.2712   8.4050  11.2644  13.8712  14.2955  15.8896
    17.7992  18.0772  18.5553  18.6510

          k =-0.3000 0.5000-0.3000 (  3055 PWs)   bands (ev):

   -93.9550 -54.3466 -54.3465 -54.3464   3.5940   5.3518   5.5634   5.5977
     5.7826   5.9423   6.4817   6.7940   6.9425   7.2296   7.3808   7.4352
     7.9731   7.9953   8.3042   8.4018   9.7441  13.5607  13.6551  15.7915
    17.5913  18.2401  18.2659  19.6215

          k = 0.6000-0.4000 0.6000 (  3062 PWs)   bands (ev):

   -93.9551 -54.3467 -54.3464 -54.3464   4.0364   5.3778   5.5430   5.6600
     5.8195   5.9985   6.3755   6.8753   6.9473   7.1461   7.2367   7.3564
     7.9973   8.0309   8.3638   8.3740   8.9178  13.1673  13.5914  15.8309
    17.2968  17.9232  18.3697  21.2547

          k = 0.5000-0.3000 0.5000 (  3054 PWs)   bands (ev):

   -93.9550 -54.3466 -54.3464 -54.3464   3.9309   5.4011   5.5332   5.6168
     5.8569   5.9490   6.4225   6.8242   6.9652   7.1622   7.2699   7.3727
     7.9628   8.0509   8.3146   8.4085   9.1056  12.9486  13.9789  16.0148
    17.0511  17.6831  18.6832  21.4126

          k = 0.4000-0.2000 0.4000 (  3057 PWs)   bands (ev):

   -93.9550 -54.3466 -54.3464 -54.3464   3.3848   5.4059   5.5354   5.5796
     5.8259   5.8342   6.5527   6.7231   6.9162   7.2901   7.4315   7.4684
     7.9241   8.0169   8.2699   8.4209  10.2093  13.0354  14.6758  16.3296
    16.9203  17.5617  19.0590  19.7913

          k = 0.3000-0.1000 0.3000 (  3037 PWs)   bands (ev):

   -93.9549 -54.3464 -54.3464 -54.3463   2.7894   5.4514   5.5429   5.5875
     5.7031   5.7498   6.5994   6.6493   6.8209   7.4691   7.5587   7.6238
     7.9127   7.9565   8.2719   8.4097  11.8885  13.3854  15.5915  16.5830
    17.0745  17.5043  18.4301  19.2644

          k = 0.2000 0.0000 0.2000 (  3054 PWs)   bands (ev):

   -93.9550 -54.3465 -54.3464 -54.3464   2.3497   5.5231   5.5412   5.5901
     5.6366   5.6640   6.5919   6.6091   6.7162   7.5818   7.6129   7.7949
     7.9364   7.9366   8.3057   8.3855  13.8742  13.9484  16.4082  16.5239
    17.2569  17.6298  17.7918  18.6585

          k = 0.0000 0.4000 0.0000 (  3050 PWs)   bands (ev):

   -93.9550 -54.3464 -54.3464 -54.3464   2.6871   5.3279   5.5526   5.6549
     5.6549   5.7647   6.4080   6.8537   6.8537   7.5435   7.6112   7.7691
     7.8962   7.8962   8.1974   8.4062  13.6162  13.6162  13.7354  14.8003
    16.4768  19.3915  19.6853  19.6853

          k =-0.1000 0.5000-0.1000 (  3057 PWs)   bands (ev):

   -93.9550 -54.3465 -54.3464 -54.3464   3.1231   5.2181   5.5501   5.6535
     5.6693   5.9017   6.3884   6.9433   6.9645   7.4294   7.5756   7.6587
     7.9181   7.9237   8.1631   8.4127  11.8330  12.9651  13.1533  15.1147
    16.5096  19.6580  19.8696  19.9461

          k =-0.2000 0.6000-0.2000 (  3060 PWs)   bands (ev):

   -93.9550 -54.3466 -54.3465 -54.3464   3.7073   5.1443   5.5798   5.6315
     5.6806   6.0436   6.4356   6.9822   7.0636   7.2137   7.4792   7.5372
     7.9538   7.9800   8.2322   8.4179  10.1857  12.4061  12.6128  15.2861
    17.5520  19.2142  19.5842  20.0634

          k = 0.7000-0.3000 0.7000 (  3066 PWs)   bands (ev):

   -93.9551 -54.3466 -54.3465 -54.3464   4.2250   5.1463   5.6023   5.6220
     5.6860   6.1267   6.5282   6.9803   6.9999   7.1680   7.3717   7.4329
     7.9221   8.0699   8.3588   8.4164   9.0351  11.7725  12.6467  15.3852
    18.6984  19.0578  19.1570  20.3552

          k = 0.6000-0.2000 0.6000 (  3067 PWs)   bands (ev):

   -93.9551 -54.3466 -54.3465 -54.3464   4.2890   5.2377   5.5764   5.5804
     5.7434   6.0833   6.6551   6.8172   7.0055   7.2713   7.2892   7.3976
     7.8769   8.0782   8.3406   8.4383   8.9251  11.3743  13.0832  15.5751
    18.2966  18.7528  20.1884  21.2222

          k = 0.5000-0.1000 0.5000 (  3068 PWs)   bands (ev):

   -93.9551 -54.3466 -54.3465 -54.3465   3.8593   5.2924   5.5599   5.5603
     5.7984   5.9358   6.6938   6.7266   7.0693   7.1829   7.4220   7.4511
     7.8527   8.0835   8.1958   8.4595   9.8692  11.2970  13.8456  15.8917
    18.0143  18.4063  19.5457  20.6100

          k = 0.4000 0.0000 0.4000 (  3060 PWs)   bands (ev):

   -93.9550 -54.3465 -54.3465 -54.3465   3.2738   5.3574   5.5508   5.5824
     5.7867   5.7956   6.6515   6.6713   6.9774   7.3075   7.5196   7.5329
     7.8703   8.0343   8.1822   8.4451  11.2566  11.6739  14.7944  16.3501
    17.6194  18.0027  18.4902  19.5712

          k = 0.0000 0.6000 0.0000 (  3078 PWs)   bands (ev):

   -93.9552 -54.3467 -54.3465 -54.3465   3.4882   5.0736   5.4891   5.6922
     5.6922   6.0368   6.2965   7.0644   7.0644   7.3918   7.5756   7.6923
     7.9580   7.9580   8.0734   8.4152  11.6759  12.2034  12.2034  14.5764
    15.8473  20.8643  20.8643  21.3812

          k =-0.1000 0.7000-0.1000 (  3060 PWs)   bands (ev):

   -93.9550 -54.3466 -54.3464 -54.3464   4.0199   4.9741   5.4717   5.6932
     5.6946   6.1972   6.2759   7.1182   7.1190   7.2369   7.5331   7.6410
     7.9524   8.0748   8.1805   8.4378  10.4735  11.4292  11.7328  14.8356
    16.0802  20.9094  21.0597  22.0420

          k = 0.8000-0.2000 0.8000 (  3063 PWs)   bands (ev):

   -93.9551 -54.3466 -54.3465 -54.3463   4.5441   4.9616   5.5052   5.6375
     5.6675   6.3251   6.3563   6.9481   7.1712   7.2408   7.4545   7.5735
     7.8654   8.2084   8.3734   8.5221   9.2902  10.6368  11.6897  15.0619
    17.2377  20.4135  20.6355  22.2290

          k = 0.7000-0.1000 0.7000 (  3065 PWs)   bands (ev):

   -93.9551 -54.3466 -54.3465 -54.3464   4.6476   5.1571   5.4946   5.6078
     5.6301   6.3104   6.5536   6.7826   7.2141   7.3212   7.3900   7.4912
     7.7940   8.1890   8.4674   8.5212   8.9023  10.0747  12.1144  15.2453
    18.8487  19.9357  20.0464  21.4867

          k = 0.6000-0.0000 0.6000 (  3064 PWs)   bands (ev):

   -93.9551 -54.3466 -54.3465 -54.3464   4.3591   5.2336   5.4944   5.5927
     5.7157   6.1250   6.7355   6.7433   7.0862   7.3230   7.3889   7.4570
     7.7886   8.0489   8.3097   8.4808   9.6452  10.0016  12.8926  15.5092
    19.3356  19.3390  19.7423  21.0573

          k = 0.0000 0.8000 0.0000 (  3062 PWs)   bands (ev):

   -93.9551 -54.3467 -54.3464 -54.3464   4.4890   4.8640   5.4031   5.7245
     5.7245   6.0974   6.3718   7.1333   7.1522   7.1522   7.5407   7.6632
     7.9937   8.2501   8.2501   8.4832   9.9441  11.1042  11.1042  14.4786
    15.5689  22.3393  22.3393  23.4192

          k = 0.9000-0.1000 0.9000 (  3061 PWs)   bands (ev):

   -93.9551 -54.3466 -54.3464 -54.3463   4.8109   5.0010   5.4013   5.6286
     5.7180   6.0553   6.5362   6.9012   7.1784   7.2198   7.5071   7.6421
     7.9173   8.3856   8.4286   8.6371   9.2869  10.3693  10.9322  14.7368
    15.9036  22.2127  22.3028  23.7281

          k = 0.8000 0.0000 0.8000 (  3076 PWs)   bands (ev):

   -93.9552 -54.3466 -54.3465 -54.3464   4.7991   5.3130   5.3627   5.4724
     5.6814   6.2894   6.5802   6.7059   7.2451   7.3027   7.4475   7.5891
     7.8115   8.3906   8.4863   8.7716   9.0490   9.5444  11.3238  15.0041
    17.1409  21.2703  21.5719  22.1614

          k = 0.0000-1.0000 0.0000 (  3026 PWs)   bands (ev):

   -93.9548 -54.3464 -54.3462 -54.3462   4.7811   5.2928   5.3820   5.6747
     5.7374   5.7374   6.6425   6.8859   7.1605   7.1605   7.5243   7.6583
     7.9690   8.4813   8.4813   8.7169   9.0278  10.6185  10.6185  14.4525
    15.4922  23.5069  23.5069  24.1206

          k =-0.2000 0.4000 0.0000 (  3054 PWs)   bands (ev):

   -93.9550 -54.3465 -54.3464 -54.3464   2.8382   5.3527   5.5749   5.6169
     5.6616   5.7936   6.4788   6.7885   6.8778   7.4699   7.5836   7.6586
     7.9001   7.9448   8.2204   8.4147  12.4312  12.7441  14.6530  15.9356
    17.0556  18.2593  18.7299  19.8767

          k =-0.3000 0.5000-0.1000 (  3055 PWs)   bands (ev):

   -93.9550 -54.3466 -54.3465 -54.3464   3.3862   5.2728   5.5843   5.6018
     5.7074   5.9114   6.5138   6.8320   6.9964   7.2914   7.5083   7.5283
     7.8908   8.0207   8.1990   8.4314  10.7502  12.2038  13.8553  16.1833
    17.4602  18.0758  19.0091  20.1834

          k = 0.6000-0.4000 0.8000 (  3057 PWs)   bands (ev):

   -93.9550 -54.3466 -54.3465 -54.3464   3.9705   5.2384   5.5677   5.6137
     5.7533   6.0179   6.5660   6.8543   7.0403   7.1497   7.3837   7.4275
     7.9016   8.0705   8.2697   8.4334   9.3943  12.0094  13.1756  16.1609
    17.2664  18.9828  19.5468  19.9716

          k = 0.5000-0.3000 0.7000 (  3074 PWs)   bands (ev):

   -93.9551 -54.3467 -54.3465 -54.3465   4.2516   5.2439   5.5516   5.6420
     5.7580   6.0641   6.5965   6.8666   6.9544   7.2050   7.2912   7.3767
     7.9024   8.1055   8.3463   8.4214   8.8187  11.9938  12.8783  16.1469
    17.1528  19.3013  19.5455  21.1036

          k =-0.2000 0.6000 0.0000 (  3062 PWs)   bands (ev):

   -93.9551 -54.3466 -54.3465 -54.3464   3.6064   5.1059   5.5390   5.6473
     5.6905   6.0387   6.3800   7.0171   7.0799   7.2871   7.5383   7.6100
     7.8946   8.0338   8.1415   8.4264  11.0563  11.6252  12.6136  15.4622
    16.4965  19.2432  20.6331  21.2060

          k = 0.7000-0.3000 0.9000 (  3052 PWs)   bands (ev):

   -93.9550 -54.3465 -54.3464 -54.3464   4.1779   5.0448   5.5606   5.6008
     5.7087   6.1682   6.4449   7.0579   7.0799   7.1719   7.4656   7.5436
     7.8474   8.1398   8.2563   8.4597   9.7727  11.0872  12.0118  15.8197
    17.4315  18.6719  20.9837  21.4583

          k = 0.6000-0.2000 0.8000 (  3070 PWs)   bands (ev):

   -93.9551 -54.3466 -54.3465 -54.3465   4.5464   5.0846   5.5296   5.5991
     5.7142   6.2237   6.5886   6.8598   7.1340   7.2353   7.4016   7.4663
     7.7851   8.2217   8.3991   8.5492   8.8198  10.7647  11.8792  16.0183
    18.1608  19.0042  20.7222  21.2131

          k = 0.5000-0.1000 0.7000 (  3066 PWs)   bands (ev):

   -93.9551 -54.3466 -54.3465 -54.3464   4.4174   5.1522   5.5118   5.6136
     5.7257   6.1507   6.6615   6.8376   7.0756   7.2550   7.4217   7.4440
     7.7755   8.1492   8.3254   8.4861   9.2207  10.5285  12.3138  16.3212
    17.7823  19.3579  20.4925  20.8731

          k = 0.4000 0.0000 0.6000 (  3057 PWs)   bands (ev):

   -93.9550 -54.3466 -54.3465 -54.3464   3.9296   5.1874   5.5625   5.6038
     5.7287   6.0181   6.5766   6.8897   7.0907   7.1840   7.4708   7.4864
     7.8260   8.1229   8.1676   8.4632  10.2550  10.7461  13.0504  16.7573
    17.2426  18.2881  19.8848  21.2870

          k = 0.8000-0.2000 1.0000 (  3062 PWs)   bands (ev):

   -93.9551 -54.3466 -54.3464 -54.3464   4.5413   4.8988   5.4552   5.6293
     5.7342   6.2462   6.3560   7.0096   7.1672   7.2196   7.5015   7.6240
     7.8715   8.2606   8.3135   8.5128   9.7851  10.6943  11.1128  15.2357
    16.2113  20.4232  22.2594  23.1674

          k = 0.7000-0.1000 0.9000 (  3073 PWs)   bands (ev):

   -93.9551 -54.3466 -54.3465 -54.3464   4.8309   5.0295   5.4764   5.4982
     5.7377   6.3624   6.4652   6.8054   7.2062   7.3063   7.4504   7.5744
     7.7495   8.3346   8.4808   8.7226   9.0866   9.9459  11.0007  15.6653
    17.2627  19.8051  21.5305  22.3568

          k = 0.6000 0.0000 0.8000 (  3073 PWs)   bands (ev):

   -93.9551 -54.3466 -54.3466 -54.3464   4.7467   5.1600   5.4143   5.5702
     5.7165   6.3498   6.5992   6.7386   7.2374   7.3078   7.4354   7.4984
     7.6912   8.2828   8.4731   8.5582   9.3367   9.4586  11.5131  15.9628
    18.9124  19.0530  20.0760  21.5942

          k =-0.2000-1.0000 0.0000 (  3062 PWs)   bands (ev):

   -93.9551 -54.3465 -54.3465 -54.3464   4.8166   5.3260   5.3719   5.4168
     5.7523   6.1018   6.6779   6.7194   7.1720   7.2831   7.4883   7.6272
     7.8444   8.4136   8.5165   8.8687   8.9440  10.2672  10.4961  15.1711
    16.1279  21.3641  22.4689  23.2914

          k = 0.6000-0.2000 1.0000 (  3072 PWs)   bands (ev):

   -93.9551 -54.3466 -54.3465 -54.3465   4.6529   5.0014   5.5005   5.5594
     5.7561   6.2906   6.5267   6.8900   7.1801   7.2179   7.4498   7.5355
     7.7117   8.2682   8.3907   8.5538   9.4861  10.0100  11.2707  16.9221
    17.6235  18.2112  21.0731  21.9174

          k = 0.5000-0.1000 0.9000 (  3070 PWs)   bands (ev):

   -93.9551 -54.3466 -54.3465 -54.3465   4.8500   5.0335   5.4192   5.5622
     5.7764   6.3553   6.6289   6.7546   7.2324   7.2739   7.4284   7.5047
     7.6459   8.3150   8.5144   8.7252   8.9902   9.8556  10.9032  17.3087
    17.6832  19.1356  19.3648  22.3119

          k =-0.4000-1.0000 0.0000 (  3066 PWs)   bands (ev):

   -93.9551 -54.3466 -54.3465 -54.3464   4.9255   5.1110   5.3486   5.5192
     5.7912   6.4941   6.4996   6.7205   7.2042   7.3872   7.4534   7.4899
     7.6409   8.3551   8.5749   8.7898   9.1963   9.6735  10.3447  16.8323
    17.7365  18.9644  19.9293  23.0263

     the Fermi energy is     8.5056 ev

!    total energy              =   -1389.41549643 Ry

     total all-electron energy =    -43178.915278 Ry
     estimated scf accuracy    <       0.00000003 Ry
     smearing contrib. (-TS)   =      -0.00561143 Ry
     internal energy E=F+TS    =   -1389.40988500 Ry

     The total energy is F=E-TS. E is the sum of the following terms:
     one-electron contribution =    -322.02864160 Ry
     hartree contribution      =     193.37116253 Ry
     xc contribution           =    -102.46164419 Ry
     ewald contribution        =    -292.70749274 Ry
     one-center paw contrib.   =    -865.58326902 Ry

     convergence has been achieved in  14 iterations

     Writing output data file ././cunipt.save/

     init_run     :      4.53s CPU      4.63s WALL (       1 calls)
     electrons    :    158.72s CPU    160.55s WALL (       1 calls)

     Called by init_run:
     wfcinit      :      3.36s CPU      3.37s WALL (       1 calls)
     potinit      :      0.38s CPU      0.40s WALL (       1 calls)
     hinit0       :      0.70s CPU      0.70s WALL (       1 calls)

     Called by electrons:
     c_bands      :    133.69s CPU    133.90s WALL (      14 calls)
     sum_band     :     18.38s CPU     19.27s WALL (      14 calls)
     v_of_rho     :      0.44s CPU      0.45s WALL (      15 calls)
     newd         :      1.13s CPU      1.90s WALL (      15 calls)
     PAW_pot      :      5.43s CPU      5.45s WALL (      15 calls)
     mix_rho      :      0.06s CPU      0.06s WALL (      14 calls)

     Called by c_bands:
     init_us_2    :      1.39s CPU      1.39s WALL (    1363 calls)
     cegterg      :    128.79s CPU    128.98s WALL (     658 calls)

     Called by *egterg:
     cdiaghg      :      2.11s CPU      2.11s WALL (    2686 calls)
     h_psi        :     79.94s CPU     80.10s WALL (    2733 calls)
     s_psi        :     10.69s CPU     10.70s WALL (    2733 calls)
     g_psi        :      0.41s CPU      0.41s WALL (    2028 calls)

     Called by h_psi:
     h_psi:calbec :      9.92s CPU      9.93s WALL (    2733 calls)
     vloc_psi     :     58.93s CPU     59.06s WALL (    2733 calls)
     add_vuspsi   :     10.77s CPU     10.78s WALL (    2733 calls)

     General routines
     calbec       :     13.83s CPU     13.85s WALL (    3391 calls)
     fft          :      0.16s CPU      0.16s WALL (     165 calls)
     ffts         :      0.01s CPU      0.01s WALL (      14 calls)
     fftw         :     60.99s CPU     61.14s WALL (  110292 calls)

     Parallel routines

     PWSCF        :   2m43.47s CPU   2m45.45s WALL


   This run was terminated on:  21: 6: 2  13Sep2024            

=------------------------------------------------------------------------------=
   JOB DONE.
=------------------------------------------------------------------------------=
