
     Program PWSCF v.6.7MaX starts on 13Sep2024 at 21:12:17 

     This program is part of the open-source Quantum ESPRESSO suite
     for quantum simulation of materials; please cite
         "P. Giannozzi et al., J. Phys.:Condens. Matter 21 395502 (2009);
         "P. Giannozzi et al., J. Phys.:Condens. Matter 29 465901 (2017);
          URL http://www.quantum-espresso.org", 
     in publications or presentations arising from this work. More details at
     http://www.quantum-espresso.org/quote

     Parallel version (MPI), running on     1 processors

     MPI processes distributed on     1 nodes
     Waiting for input...
     Reading input from standard input

     Current dimensions of program PWSCF are:
     Max number of different atomic species (ntypx) = 10
     Max number of k-points (npk) =  40000
     Max angular momentum in pseudopotentials (lmaxx) =  3
     file Cu.upf: wavefunction(s)  4S 3D renormalized
     file Ni.upf: wavefunction(s)  3P 3D renormalized
     file Pt.upf: wavefunction(s)  6S 5D renormalized

     Subspace diagonalization in iterative solution of the eigenvalue problem:
     a serial algorithm will be used


     G-vector sticks info
     --------------------
     sticks:   dense  smooth     PW     G-vecs:    dense   smooth      PW
     Sum        1159    1159    349                26469    26469    4279



     bravais-lattice index     =            2
     lattice parameter (alat)  =      11.9000  a.u.
     unit-cell volume          =     421.2898 (a.u.)^3
     number of atoms/cell      =            3
     number of atomic types    =            3
     number of electrons       =        39.00
     number of Kohn-Sham states=           28
     kinetic-energy cutoff     =      60.0000  Ry
     charge density cutoff     =     240.0000  Ry
     scf convergence threshold =      1.0E-07
     mixing beta               =       0.7000
     number of iterations used =            8  plain     mixing
     Exchange-correlation= SLA  PW   PBX  PBC
                           (   1   4   3   4   0   0   0)

     celldm(1)=  11.900000  celldm(2)=   0.000000  celldm(3)=   0.000000
     celldm(4)=   0.000000  celldm(5)=   0.000000  celldm(6)=   0.000000

     crystal axes: (cart. coord. in units of alat)
               a(1) = (  -0.500000   0.000000   0.500000 )  
               a(2) = (   0.000000   0.500000   0.500000 )  
               a(3) = (  -0.500000   0.500000   0.000000 )  

     reciprocal axes: (cart. coord. in units 2 pi/alat)
               b(1) = ( -1.000000 -1.000000  1.000000 )  
               b(2) = (  1.000000  1.000000  1.000000 )  
               b(3) = ( -1.000000  1.000000 -1.000000 )  


     PseudoPot. # 1 for Cu read from file:
     ././Cu.upf
     MD5 check sum: cfffd1f38ee05704b3e17f46f1730a6f
     Pseudo is Projector augmented-wave + core cor, Zval = 11.0
     Generated using &quot;atomic&quot; code by A. Dal Corso  v.6.3
     Shape of augmentation charge: PSQ
     Using radial grid of 1199 points,  6 beta functions with: 
                l(1) =   0
                l(2) =   0
                l(3) =   1
                l(4) =   1
                l(5) =   2
                l(6) =   2
     Q(r) pseudized with 0 coefficients 


     PseudoPot. # 2 for Ni read from file:
     ././Ni.upf
     MD5 check sum: 6e86b733589c3ad8389697b807d86aa7
     Pseudo is Projector augmented-wave + core cor, Zval = 18.0
     Generated using &quot;atomic&quot; code by A. Dal Corso  v.6.3
     Shape of augmentation charge: PSQ
     Using radial grid of 1195 points,  6 beta functions with: 
                l(1) =   0
                l(2) =   0
                l(3) =   1
                l(4) =   1
                l(5) =   2
                l(6) =   2
     Q(r) pseudized with 0 coefficients 


     PseudoPot. # 3 for Pt read from file:
     ././Pt.upf
     MD5 check sum: c5224e9cd7a5e36e81f2def9f50bb494
     Pseudo is Projector augmented-wave + core cor, Zval = 10.0
     Generated using &quot;atomic&quot; code by A. Dal Corso  v.6.3
     Shape of augmentation charge: PSQ
     Using radial grid of 1277 points,  6 beta functions with: 
                l(1) =   0
                l(2) =   0
                l(3) =   1
                l(4) =   1
                l(5) =   2
                l(6) =   2
     Q(r) pseudized with 0 coefficients 


     atomic species   valence    mass     pseudopotential
        Cu            11.00    63.54600     Cu( 1.00)
        Ni            18.00    58.69300     Ni( 1.00)
        Pt            10.00   195.08000     Pt( 1.00)

     24 Sym. Ops. (no inversion) found



   Cartesian axes

     site n.     atom                  positions (alat units)
         1           Cu  tau(   1) = (   0.0000000   0.0000000   0.0000000  )
         2           Ni  tau(   2) = (   0.5000000   0.5000000   0.5000000  )
         3           Pt  tau(   3) = (   0.2500000   0.2500000   0.2500000  )

     number of k points=    47  Gaussian smearing, width (Ry)=  0.0100
                       cart. coord. in units 2pi/alat
        k(    1) = (   0.0000000   0.0000000   0.0000000), wk =   0.0020000
        k(    2) = (  -0.1000000   0.1000000  -0.1000000), wk =   0.0160000
        k(    3) = (  -0.2000000   0.2000000  -0.2000000), wk =   0.0160000
        k(    4) = (  -0.3000000   0.3000000  -0.3000000), wk =   0.0160000
        k(    5) = (  -0.4000000   0.4000000  -0.4000000), wk =   0.0160000
        k(    6) = (   0.5000000  -0.5000000   0.5000000), wk =   0.0080000
        k(    7) = (   0.0000000   0.2000000   0.0000000), wk =   0.0120000
        k(    8) = (  -0.1000000   0.3000000  -0.1000000), wk =   0.0480000
        k(    9) = (  -0.2000000   0.4000000  -0.2000000), wk =   0.0480000
        k(   10) = (  -0.3000000   0.5000000  -0.3000000), wk =   0.0480000
        k(   11) = (   0.6000000  -0.4000000   0.6000000), wk =   0.0480000
        k(   12) = (   0.5000000  -0.3000000   0.5000000), wk =   0.0480000
        k(   13) = (   0.4000000  -0.2000000   0.4000000), wk =   0.0480000
        k(   14) = (   0.3000000  -0.1000000   0.3000000), wk =   0.0480000
        k(   15) = (   0.2000000   0.0000000   0.2000000), wk =   0.0240000
        k(   16) = (   0.0000000   0.4000000   0.0000000), wk =   0.0120000
        k(   17) = (  -0.1000000   0.5000000  -0.1000000), wk =   0.0480000
        k(   18) = (  -0.2000000   0.6000000  -0.2000000), wk =   0.0480000
        k(   19) = (   0.7000000  -0.3000000   0.7000000), wk =   0.0480000
        k(   20) = (   0.6000000  -0.2000000   0.6000000), wk =   0.0480000
        k(   21) = (   0.5000000  -0.1000000   0.5000000), wk =   0.0480000
        k(   22) = (   0.4000000   0.0000000   0.4000000), wk =   0.0240000
        k(   23) = (   0.0000000   0.6000000   0.0000000), wk =   0.0120000
        k(   24) = (  -0.1000000   0.7000000  -0.1000000), wk =   0.0480000
        k(   25) = (   0.8000000  -0.2000000   0.8000000), wk =   0.0480000
        k(   26) = (   0.7000000  -0.1000000   0.7000000), wk =   0.0480000
        k(   27) = (   0.6000000  -0.0000000   0.6000000), wk =   0.0240000
        k(   28) = (   0.0000000   0.8000000   0.0000000), wk =   0.0120000
        k(   29) = (   0.9000000  -0.1000000   0.9000000), wk =   0.0480000
        k(   30) = (   0.8000000   0.0000000   0.8000000), wk =   0.0240000
        k(   31) = (   0.0000000  -1.0000000   0.0000000), wk =   0.0060000
        k(   32) = (  -0.2000000   0.4000000   0.0000000), wk =   0.0480000
        k(   33) = (  -0.3000000   0.5000000  -0.1000000), wk =   0.0960000
        k(   34) = (   0.6000000  -0.4000000   0.8000000), wk =   0.0960000
        k(   35) = (   0.5000000  -0.3000000   0.7000000), wk =   0.0480000
        k(   36) = (  -0.2000000   0.6000000   0.0000000), wk =   0.0480000
        k(   37) = (   0.7000000  -0.3000000   0.9000000), wk =   0.0960000
        k(   38) = (   0.6000000  -0.2000000   0.8000000), wk =   0.0960000
        k(   39) = (   0.5000000  -0.1000000   0.7000000), wk =   0.0960000
        k(   40) = (   0.4000000   0.0000000   0.6000000), wk =   0.0480000
        k(   41) = (   0.8000000  -0.2000000   1.0000000), wk =   0.0480000
        k(   42) = (   0.7000000  -0.1000000   0.9000000), wk =   0.0960000
        k(   43) = (   0.6000000   0.0000000   0.8000000), wk =   0.0480000
        k(   44) = (  -0.2000000  -1.0000000   0.0000000), wk =   0.0240000
        k(   45) = (   0.6000000  -0.2000000   1.0000000), wk =   0.0480000
        k(   46) = (   0.5000000  -0.1000000   0.9000000), wk =   0.0480000
        k(   47) = (  -0.4000000  -1.0000000   0.0000000), wk =   0.0240000

     Dense  grid:    26469 G-vectors     FFT dimensions: (  45,  45,  45)

     Estimated max dynamical RAM per process >     168.66 MB

     Check: negative core charge=   -0.000003

     Initial potential from superposition of free atoms

     starting charge   38.99935, renormalised to   39.00000
     Starting wfcs are   28 randomized atomic wfcs
     Checking if some PAW data can be deallocated... 

     total cpu time spent up to now is        4.9 secs

     Self-consistent Calculation

     iteration #  1     ecut=    60.00 Ry     beta= 0.70
     Davidson diagonalization with overlap
     ethr =  1.00E-02,  avg # of iterations =  6.4

     total cpu time spent up to now is       18.9 secs

     total energy              =   -1387.72848986 Ry
     estimated scf accuracy    <       2.10276020 Ry

     iteration #  2     ecut=    60.00 Ry     beta= 0.70
     Davidson diagonalization with overlap
     ethr =  5.39E-03,  avg # of iterations =  3.6

     total cpu time spent up to now is       35.6 secs

     total energy              =   -1386.19646225 Ry
     estimated scf accuracy    <      61.25858312 Ry

     iteration #  3     ecut=    60.00 Ry     beta= 0.70
     Davidson diagonalization with overlap
     ethr =  5.39E-03,  avg # of iterations =  4.4

     total cpu time spent up to now is       50.2 secs

     total energy              =   -1389.33081968 Ry
     estimated scf accuracy    <       0.77959157 Ry

     iteration #  4     ecut=    60.00 Ry     beta= 0.70
     Davidson diagonalization with overlap
     ethr =  2.00E-03,  avg # of iterations =  1.0

     total cpu time spent up to now is       59.8 secs

     total energy              =   -1389.36989922 Ry
     estimated scf accuracy    <       0.14210823 Ry

     iteration #  5     ecut=    60.00 Ry     beta= 0.70
     Davidson diagonalization with overlap
     ethr =  3.64E-04,  avg # of iterations =  1.6

     total cpu time spent up to now is       70.2 secs

     total energy              =   -1389.37389280 Ry
     estimated scf accuracy    <       0.02257863 Ry

     iteration #  6     ecut=    60.00 Ry     beta= 0.70
     Davidson diagonalization with overlap
     ethr =  5.79E-05,  avg # of iterations =  3.3

     total cpu time spent up to now is       82.7 secs

     total energy              =   -1389.37581980 Ry
     estimated scf accuracy    <       0.01517288 Ry

     iteration #  7     ecut=    60.00 Ry     beta= 0.70
     Davidson diagonalization with overlap
     ethr =  3.89E-05,  avg # of iterations =  1.3

     total cpu time spent up to now is       92.6 secs

     total energy              =   -1389.37680654 Ry
     estimated scf accuracy    <       0.01616273 Ry

     iteration #  8     ecut=    60.00 Ry     beta= 0.70
     Davidson diagonalization with overlap
     ethr =  3.89E-05,  avg # of iterations =  1.0

     total cpu time spent up to now is      102.4 secs

     total energy              =   -1389.37820613 Ry
     estimated scf accuracy    <       0.00429570 Ry

     iteration #  9     ecut=    60.00 Ry     beta= 0.70
     Davidson diagonalization with overlap
     ethr =  1.10E-05,  avg # of iterations =  2.2

     total cpu time spent up to now is      112.7 secs

     total energy              =   -1389.37854457 Ry
     estimated scf accuracy    <       0.00008506 Ry

     iteration # 10     ecut=    60.00 Ry     beta= 0.70
     Davidson diagonalization with overlap
     ethr =  2.18E-07,  avg # of iterations =  6.1

     total cpu time spent up to now is      130.8 secs

     total energy              =   -1389.37862858 Ry
     estimated scf accuracy    <       0.00003113 Ry

     iteration # 11     ecut=    60.00 Ry     beta= 0.70
     Davidson diagonalization with overlap
     ethr =  7.98E-08,  avg # of iterations =  1.1

     total cpu time spent up to now is      140.8 secs

     total energy              =   -1389.37862063 Ry
     estimated scf accuracy    <       0.00004755 Ry

     iteration # 12     ecut=    60.00 Ry     beta= 0.70
     Davidson diagonalization with overlap
     ethr =  7.98E-08,  avg # of iterations =  1.6

     total cpu time spent up to now is      151.1 secs

     total energy              =   -1389.37862376 Ry
     estimated scf accuracy    <       0.00000293 Ry

     iteration # 13     ecut=    60.00 Ry     beta= 0.70
     Davidson diagonalization with overlap
     ethr =  7.52E-09,  avg # of iterations =  2.0

     total cpu time spent up to now is      163.4 secs

     total energy              =   -1389.37862364 Ry
     estimated scf accuracy    <       0.00000135 Ry

     iteration # 14     ecut=    60.00 Ry     beta= 0.70
     Davidson diagonalization with overlap
     ethr =  3.46E-09,  avg # of iterations =  2.4

     total cpu time spent up to now is      175.7 secs

     total energy              =   -1389.37862387 Ry
     estimated scf accuracy    <       0.00000039 Ry

     iteration # 15     ecut=    60.00 Ry     beta= 0.70
     Davidson diagonalization with overlap
     ethr =  1.00E-09,  avg # of iterations =  1.9

     total cpu time spent up to now is      186.5 secs

     End of self-consistent calculation

          k = 0.0000 0.0000 0.0000 (  3287 PWs)   bands (ev):

   -94.8993 -55.2929 -55.2929 -55.2929   1.4260   4.8068   4.8068   4.8706
     4.8706   4.8706   5.7419   5.7419   5.7419   6.6517   6.6517   6.9908
     6.9908   6.9908   7.3224   7.3224  13.9071  15.5244  15.5244  15.5244
    15.6345  15.6345  15.6345  16.3357

          k =-0.1000 0.1000-0.1000 (  3311 PWs)   bands (ev):

   -94.8995 -55.2931 -55.2931 -55.2931   1.5460   4.8175   4.8175   4.8423
     4.8818   4.8818   5.7520   5.7606   5.7606   6.6452   6.6452   6.9231
     6.9751   6.9751   7.3228   7.3228  13.1336  14.3076  14.7344  14.7344
    16.2613  16.3586  16.3586  17.0148

          k =-0.2000 0.2000-0.2000 (  3320 PWs)   bands (ev):

   -94.8995 -55.2932 -55.2932 -55.2932   1.8947   4.7838   4.8188   4.8188
     4.9424   4.9424   5.7546   5.8128   5.8128   6.6012   6.6012   6.7578
     6.9540   6.9540   7.3261   7.3261  11.2190  13.9815  13.9815  14.2908
    16.3288  16.4812  16.4812  17.1177

          k =-0.3000 0.3000-0.3000 (  3323 PWs)   bands (ev):

   -94.8996 -55.2933 -55.2931 -55.2931   2.4250   4.7487   4.8052   4.8052
     5.0441   5.0441   5.6890   5.8886   5.8886   6.4854   6.4854   6.5814
     6.9718   6.9718   7.3317   7.3317   9.5089  13.3728  13.3728  14.3912
    15.7611  16.2126  16.2126  18.3208

          k =-0.4000 0.4000-0.4000 (  3293 PWs)   bands (ev):

   -94.8994 -55.2932 -55.2930 -55.2930   2.9992   4.7917   4.7917   4.7971
     5.1426   5.1426   5.5042   5.9771   5.9771   6.3310   6.3310   6.4574
     7.0133   7.0133   7.3351   7.3351   8.2682  12.9685  12.9685  14.5309
    15.3119  15.9956  15.9956  19.9302

          k = 0.5000-0.5000 0.5000 (  3316 PWs)   bands (ev):

   -94.8995 -55.2933 -55.2932 -55.2932   3.2817   4.7863   4.7863   4.9137
     5.1851   5.1851   5.3064   6.0394   6.0394   6.2363   6.2363   6.4056
     7.0343   7.0343   7.3356   7.3356   7.8008  12.8256  12.8256  14.6332
    15.1031  15.9182  15.9182  21.0852

          k = 0.0000 0.2000 0.0000 (  3315 PWs)   bands (ev):

   -94.8995 -55.2931 -55.2931 -55.2931   1.5866   4.7729   4.8482   4.8607
     4.8794   4.8794   5.6860   5.8053   5.8053   6.6350   6.6546   6.9163
     6.9676   6.9676   7.2857   7.3485  13.5914  13.9019  13.9019  14.2654
    16.2208  16.3960  17.2157  17.2159

          k =-0.1000 0.3000-0.1000 (  3309 PWs)   bands (ev):

   -94.8995 -55.2931 -55.2931 -55.2931   1.8612   4.7143   4.8407   4.8648
     4.9006   4.9533   5.6607   5.8651   5.8796   6.5949   6.6420   6.8016
     6.9467   6.9496   7.2581   7.3625  11.8850  13.1672  13.4360  14.4677
    15.9983  16.4219  17.3292  17.4590

          k =-0.2000 0.4000-0.2000 (  3311 PWs)   bands (ev):

   -94.8995 -55.2932 -55.2931 -55.2931   2.3373   4.6512   4.8384   4.8473
     4.9591   5.0663   5.6705   5.8999   5.9678   6.4776   6.5771   6.6367
     6.9457   6.9709   7.2538   7.3713  10.0622  12.6234  12.9056  14.4806
    16.2250  16.6704  17.0615  17.1848

          k =-0.3000 0.5000-0.3000 (  3309 PWs)   bands (ev):

   -94.8995 -55.2932 -55.2932 -55.2931   2.9179   4.6232   4.8257   4.8509
     5.0355   5.1726   5.6509   5.9241   6.0554   6.3072   6.4512   6.5047
     6.9830   7.0088   7.2810   7.3680   8.6189  12.3406  12.3424  14.4049
    15.9677  16.8020  16.8060  18.0868

          k = 0.6000-0.4000 0.6000 (  3298 PWs)   bands (ev):

   -94.8994 -55.2932 -55.2931 -55.2931   3.3396   4.6505   4.8075   4.8939
     5.0743   5.2234   5.5672   5.9968   6.0613   6.2333   6.3187   6.4246
     7.0085   7.0375   7.3323   7.3434   7.8340  11.9040  12.3743  14.4593
    15.6706  16.4669  16.9054  19.6559

          k = 0.5000-0.3000 0.5000 (  3299 PWs)   bands (ev):

   -94.8994 -55.2932 -55.2931 -55.2931   3.2390   4.6703   4.7985   4.8592
     5.1036   5.1821   5.6076   5.9453   6.0814   6.2467   6.3493   6.4434
     6.9744   7.0574   7.2905   7.3722   8.0116  11.7023  12.7365  14.6555
    15.4289  16.2368  17.1919  19.7698

          k = 0.4000-0.2000 0.4000 (  3320 PWs)   bands (ev):

   -94.8995 -55.2932 -55.2932 -55.2931   2.7198   4.6708   4.7997   4.8368
     5.0746   5.0779   5.7133   5.8529   6.0358   6.3609   6.4936   6.5412
     6.9369   7.0288   7.2515   7.3845   9.0600  11.7745  13.3836  14.9603
    15.3183  16.1226  17.5552  18.2164

          k = 0.3000-0.1000 0.3000 (  3312 PWs)   bands (ev):

   -94.8995 -55.2932 -55.2931 -55.2931   2.1571   4.7149   4.8063   4.8481
     4.9647   5.0001   5.7486   5.7883   5.9487   6.5163   6.6023   6.6839
     6.9273   6.9772   7.2540   7.3756  10.6538  12.0860  14.2333  15.0652
    15.6173  16.0564  16.9294  17.8865

          k = 0.2000 0.0000 0.2000 (  3307 PWs)   bands (ev):

   -94.8995 -55.2931 -55.2931 -55.2930   1.7432   4.7838   4.8089   4.8547
     4.8996   4.9192   5.7418   5.7551   5.8538   6.6119   6.6433   6.8341
     6.9530   6.9615   7.2836   7.3541  12.5242  12.6065  14.8723  15.0974
    15.7947  16.0531  16.4829  17.3224

          k = 0.0000 0.4000 0.0000 (  3327 PWs)   bands (ev):

   -94.8996 -55.2932 -55.2932 -55.2932   2.0603   4.6050   4.8340   4.9037
     4.9037   5.0169   5.5739   5.9738   5.9738   6.5754   6.6531   6.7891
     6.9318   6.9318   7.1905   7.3718  12.3604  12.3807  12.3807  13.2534
    15.2103  17.7891  18.2115  18.2115

          k =-0.1000 0.5000-0.1000 (  3317 PWs)   bands (ev):

   -94.8995 -55.2932 -55.2932 -55.2931   2.4712   4.5026   4.8319   4.9030
     4.9177   5.1378   5.5551   6.0529   6.0710   6.4792   6.6296   6.6922
     6.9448   6.9554   7.1607   7.3782  10.6223  11.7777  11.8500  13.6214
    15.1983  18.0913  18.3570  18.3669

          k =-0.2000 0.6000-0.2000 (  3303 PWs)   bands (ev):

   -94.8994 -55.2932 -55.2931 -55.2931   3.0241   4.4329   4.8533   4.8840
     4.9312   5.2632   5.5974   6.0914   6.1604   6.2935   6.5503   6.5835
     6.9769   6.9955   7.2206   7.3841   9.0583  11.1507  11.4563  13.8498
    16.1331  17.6148  18.0692  18.4855

          k = 0.7000-0.3000 0.7000 (  3305 PWs)   bands (ev):

   -94.8994 -55.2933 -55.2932 -55.2931   3.5183   4.4336   4.8581   4.8676
     4.9530   5.3383   5.6845   6.0860   6.1170   6.2576   6.4509   6.4888
     6.9442   7.0788   7.3298   7.3868   7.9594  10.5626  11.4930  13.9705
    17.0944  17.5708  17.6499  18.7526

          k = 0.6000-0.2000 0.6000 (  3311 PWs)   bands (ev):

   -94.8995 -55.2933 -55.2932 -55.2932   3.5823   4.5165   4.8190   4.8348
     5.0106   5.3046   5.8059   5.9351   6.1164   6.3608   6.3713   6.4616
     6.8983   7.0849   7.3232   7.3989   7.8484  10.1903  11.9001  14.1683
    16.7072  17.2603  18.6448  19.5585

          k = 0.5000-0.1000 0.5000 (  3312 PWs)   bands (ev):

   -94.8995 -55.2932 -55.2932 -55.2931   3.1707   4.5644   4.8130   4.8193
     5.0526   5.1769   5.8340   5.8518   6.1738   6.2720   6.4919   6.5233
     6.8710   7.0885   7.1910   7.4184   8.7520  10.1093  12.6086  14.4873
    16.4312  16.9247  17.9887  19.1008

          k = 0.4000 0.0000 0.4000 (  3324 PWs)   bands (ev):

   -94.8996 -55.2933 -55.2932 -55.2931   2.6146   4.6261   4.8109   4.8402
     5.0438   5.0440   5.7921   5.8045   6.0947   6.3744   6.5752   6.6015
     6.8852   7.0491   7.1742   7.4066  10.0848  10.4400  13.4923  14.9431
    16.0316  16.5259  16.9898  18.1325

          k = 0.0000 0.6000 0.0000 (  3323 PWs)   bands (ev):

   -94.8996 -55.2932 -55.2932 -55.2932   2.8152   4.3695   4.7822   4.9358
     4.9358   5.2582   5.4716   6.1576   6.1576   6.4441   6.6328   6.7048
     6.9939   6.9939   7.0818   7.3801  10.4286  11.0729  11.0729  13.0272
    14.5604  19.3186  19.3186  19.6860

          k =-0.1000 0.7000-0.1000 (  3317 PWs)   bands (ev):

   -94.8995 -55.2933 -55.2932 -55.2932   3.3182   4.2768   4.7678   4.9360
     4.9367   5.3996   5.4521   6.2063   6.2073   6.3121   6.5917   6.6646
     6.9795   7.0932   7.1804   7.4015   9.3281  10.2894  10.6440  13.3203
    14.7511  19.2973  19.4820  20.3317

          k = 0.8000-0.2000 0.8000 (  3306 PWs)   bands (ev):

   -94.8994 -55.2933 -55.2932 -55.2931   3.8212   4.2615   4.7948   4.8799
     4.9143   5.5134   5.5256   6.0582   6.2602   6.3195   6.5184   6.6082
     6.8989   7.2096   7.3440   7.4825   8.2317   9.5046  10.6105  13.6018
    15.8122  18.7848  19.0675  20.5457

          k = 0.7000-0.1000 0.7000 (  3288 PWs)   bands (ev):

   -94.8993 -55.2932 -55.2931 -55.2931   3.9362   4.4335   4.7325   4.8812
     4.8939   5.5074   5.7054   5.9036   6.3013   6.3989   6.4673   6.5364
     6.8293   7.1968   7.4240   7.5062   7.8397   8.9584  11.0036  13.8097
    17.3338  18.3174  18.5022  19.8673

          k = 0.6000-0.0000 0.6000 (  3292 PWs)   bands (ev):

   -94.8993 -55.2932 -55.2931 -55.2931   3.6523   4.5070   4.7414   4.8479
     4.9866   5.3467   5.8642   5.8714   6.1762   6.4136   6.4652   6.5224
     6.8165   7.0622   7.2979   7.4363   8.5665   8.8618  11.7226  14.0878
    17.7091  17.8176  18.1778  19.4999

          k = 0.0000 0.8000 0.0000 (  3302 PWs)   bands (ev):

   -94.8994 -55.2933 -55.2932 -55.2932   3.7621   4.1751   4.7079   4.9637
     4.9637   5.2877   5.5531   6.2226   6.2366   6.2366   6.5919   6.6828
     7.0093   7.2454   7.2454   7.4417   8.7993  10.0739  10.0739  12.9250
    14.2600  20.6796  20.6796  21.6329

          k = 0.9000-0.1000 0.9000 (  3302 PWs)   bands (ev):

   -94.8994 -55.2933 -55.2932 -55.2932   4.1224   4.2524   4.7068   4.8658
     4.9580   5.2521   5.6967   6.0212   6.2633   6.2984   6.5587   6.6653
     6.9438   7.3569   7.3916   7.5822   8.1914   9.3588   9.9247  13.2121
    14.5614  20.5699  20.5963  21.9833

          k = 0.8000 0.0000 0.8000 (  3286 PWs)   bands (ev):

   -94.8993 -55.2932 -55.2931 -55.2931   4.1059   4.5675   4.5941   4.7761
     4.9260   5.4665   5.7466   5.8372   6.3301   6.3754   6.5059   6.6166
     6.8507   7.3604   7.4395   7.7306   7.9664   8.5326  10.2808  13.5362
    15.7117  19.6770  19.8645  20.5275

          k = 0.0000-1.0000 0.0000 (  3306 PWs)   bands (ev):

   -94.8994 -55.2934 -55.2932 -55.2932   4.0987   4.5370   4.6741   4.8940
     4.9748   4.9748   5.7864   6.0127   6.2458   6.2458   6.5719   6.6803
     6.9862   7.4344   7.4344   7.6584   7.9358   9.6473   9.6473  12.8961
    14.1747  21.7218  21.7218  22.6831

          k =-0.2000 0.4000 0.0000 (  3308 PWs)   bands (ev):

   -94.8995 -55.2931 -55.2931 -55.2931   2.2030   4.6262   4.8419   4.8719
     4.9210   5.0410   5.6370   5.9144   5.9985   6.5154   6.6282   6.7074
     6.9199   6.9705   7.2094   7.3800  11.1946  11.4658  13.3169  14.4279
    15.7598  16.7272  17.1740  18.3970

          k =-0.3000 0.5000-0.1000 (  3316 PWs)   bands (ev):

   -94.8995 -55.2933 -55.2932 -55.2931   2.7206   4.5505   4.8450   4.8559
     4.9685   5.1472   5.6672   5.9533   6.1072   6.3609   6.5696   6.5887
     6.9088   7.0359   7.1900   7.3950   9.5876  10.9758  12.5823  14.7374
    16.0213  16.5690  17.4688  18.6372

          k = 0.6000-0.4000 0.8000 (  3304 PWs)   bands (ev):

   -94.8994 -55.2932 -55.2931 -55.2931   3.2760   4.5180   4.8241   4.8633
     5.0145   5.2428   5.7188   5.9791   6.1455   6.2397   6.4590   6.4925
     6.9209   7.0760   7.2536   7.3963   8.2962  10.7966  11.9612  14.7782
    15.7167  17.4648  18.0093  18.3992

          k = 0.5000-0.3000 0.7000 (  3286 PWs)   bands (ev):

   -94.8993 -55.2932 -55.2931 -55.2931   3.5456   4.5249   4.8064   4.8807
     5.0250   5.2835   5.7571   5.9870   6.0690   6.2952   6.3719   6.4409
     6.9226   7.1080   7.3236   7.3867   7.7442  10.7762  11.6961  14.7892
    15.5789  17.7318  18.0429  19.4583

          k =-0.2000 0.6000 0.0000 (  3307 PWs)   bands (ev):

   -94.8994 -55.2932 -55.2931 -55.2931   2.9278   4.3982   4.8237   4.8939
     4.9381   5.2597   5.5462   6.1156   6.1760   6.3566   6.6006   6.6448
     6.9247   7.0547   7.1402   7.3912   9.8898  10.4519  11.4171  13.9489
    15.1801  17.6908  19.0618  19.5578

          k = 0.7000-0.3000 0.9000 (  3305 PWs)   bands (ev):

   -94.8994 -55.2932 -55.2932 -55.2931   3.4711   4.3401   4.8399   4.8481
     4.9579   5.3752   5.6040   6.1540   6.1772   6.2623   6.5332   6.5881
     6.8810   7.1432   7.2436   7.4221   8.6791   9.9256  10.8686  14.3525
    16.0267  17.1156  19.4270  19.7668

          k = 0.6000-0.2000 0.8000 (  3296 PWs)   bands (ev):

   -94.8994 -55.2932 -55.2932 -55.2931   3.8294   4.3746   4.7709   4.8694
     4.9717   5.4259   5.7354   5.9771   6.2339   6.3265   6.4702   6.5213
     6.8202   7.2165   7.3703   7.5187   7.7621   9.6088  10.7574  14.5835
    16.6233  17.4914  19.1619  19.6166

          k = 0.5000-0.1000 0.7000 (  3301 PWs)   bands (ev):

   -94.8994 -55.2932 -55.2932 -55.2931   3.7063   4.4359   4.7568   4.8711
     4.9923   5.3644   5.7964   5.9612   6.1720   6.3501   6.4938   6.5042
     6.8078   7.1491   7.3117   7.4437   8.1460   9.3853  11.1549  14.8993
    16.2398  17.8301  18.9028  19.3219

          k = 0.4000 0.0000 0.6000 (  3319 PWs)   bands (ev):

   -94.8995 -55.2933 -55.2932 -55.2931   3.2367   4.4695   4.8158   4.8586
     4.9930   5.2459   5.7200   6.0050   6.1866   6.2752   6.5417   6.5471
     6.8516   7.1221   7.1690   7.4228   9.1412   9.5760  11.8359  15.3463
    15.7129  16.8020  18.3113  19.7234

          k = 0.8000-0.2000 1.0000 (  3310 PWs)   bands (ev):

   -94.8995 -55.2933 -55.2932 -55.2932   3.8141   4.2062   4.7541   4.8712
     4.9743   5.4251   5.5396   6.1133   6.2550   6.2965   6.5584   6.6508
     6.9071   7.2517   7.2951   7.4702   8.6733   9.6186  10.0513  13.7115
    14.8767  18.8187  20.6332  21.3812

          k = 0.7000-0.1000 0.9000 (  3300 PWs)   bands (ev):

   -94.8994 -55.2933 -55.2932 -55.2931   4.1253   4.3017   4.7159   4.7933
     4.9799   5.5305   5.6399   5.9300   6.2982   6.3777   6.5096   6.6093
     6.7955   7.3133   7.4367   7.6624   8.0419   8.8729   9.9497  14.1853
    15.8424  18.2128  19.9346  20.6974

          k = 0.6000 0.0000 0.8000 (  3287 PWs)   bands (ev):

   -94.8993 -55.2932 -55.2931 -55.2931   4.0376   4.4395   4.6473   4.8519
     4.9694   5.5416   5.7452   5.8638   6.3244   6.3932   6.5000   6.5489
     6.7330   7.2705   7.4391   7.5255   8.2849   8.3595  10.4158  14.5135
    17.3927  17.4726  18.5596  19.9608

          k =-0.2000-1.0000 0.0000 (  3304 PWs)   bands (ev):

   -94.8994 -55.2933 -55.2933 -55.2932   4.1307   4.5507   4.6300   4.7203
     4.9898   5.2958   5.8149   5.8680   6.2615   6.3544   6.5410   6.6520
     6.8814   7.3782   7.4647   7.7986   7.8668   9.2463   9.5113  13.6426
    14.7857  19.7114  20.8283  21.5555

          k = 0.6000-0.2000 1.0000 (  3297 PWs)   bands (ev):

   -94.8994 -55.2932 -55.2932 -55.2931   3.9302   4.2982   4.7415   4.8420
     5.0041   5.4853   5.6756   6.0049   6.2678   6.3147   6.5131   6.5817
     6.7550   7.2541   7.3657   7.5084   8.4183   8.9049  10.1697  15.3894
    16.2439  16.6551  19.4970  20.3043

          k = 0.5000-0.1000 0.9000 (  3310 PWs)   bands (ev):

   -94.8995 -55.2933 -55.2933 -55.2931   4.1319   4.3265   4.6515   4.8453
     5.0234   5.5439   5.7658   5.8825   6.3340   6.3603   6.4889   6.5627
     6.6822   7.2958   7.4673   7.6717   7.9575   8.7495   9.8362  15.8390
    16.1305  17.5805  17.9023  20.6843

          k =-0.4000-1.0000 0.0000 (  3302 PWs)   bands (ev):

   -94.8994 -55.2933 -55.2932 -55.2931   4.2285   4.3951   4.5648   4.8119
     5.0323   5.6448   5.6776   5.8481   6.3058   6.4490   6.5092   6.5650
     6.6726   7.3298   7.5159   7.7369   8.1168   8.6057   9.3394  15.2969
    16.3235  17.3803  18.4110  21.3356

     the Fermi energy is     7.4699 ev

!    total energy              =   -1389.37862393 Ry

     total all-electron energy =    -43178.878405 Ry
     estimated scf accuracy    <          8.8E-09 Ry
     smearing contrib. (-TS)   =      -0.00585727 Ry
     internal energy E=F+TS    =   -1389.37276666 Ry

     The total energy is F=E-TS. E is the sum of the following terms:
     one-electron contribution =    -334.23820552 Ry
     hartree contribution      =     198.14418426 Ry
     xc contribution           =    -102.38502844 Ry
     ewald contribution        =    -285.32831225 Ry
     one-center paw contrib.   =    -865.56540471 Ry

     convergence has been achieved in  15 iterations

     Writing output data file ././cunipt.save/

     init_run     :      4.58s CPU      4.66s WALL (       1 calls)
     electrons    :    179.46s CPU    181.60s WALL (       1 calls)

     Called by init_run:
     wfcinit      :      3.40s CPU      3.41s WALL (       1 calls)
     potinit      :      0.36s CPU      0.38s WALL (       1 calls)
     hinit0       :      0.70s CPU      0.71s WALL (       1 calls)

     Called by electrons:
     c_bands      :    151.73s CPU    151.96s WALL (      15 calls)
     sum_band     :     20.67s CPU     21.71s WALL (      15 calls)
     v_of_rho     :      0.46s CPU      0.47s WALL (      16 calls)
     newd         :      1.29s CPU      2.19s WALL (      16 calls)
     PAW_pot      :      5.66s CPU      5.68s WALL (      16 calls)
     mix_rho      :      0.06s CPU      0.07s WALL (      15 calls)

     Called by c_bands:
     init_us_2    :      1.64s CPU      1.65s WALL (    1457 calls)
     cegterg      :    145.90s CPU    146.12s WALL (     705 calls)

     Called by *egterg:
     cdiaghg      :      2.12s CPU      2.12s WALL (    2579 calls)
     h_psi        :     89.28s CPU     89.46s WALL (    2626 calls)
     s_psi        :     12.56s CPU     12.57s WALL (    2626 calls)
     g_psi        :      0.48s CPU      0.48s WALL (    1874 calls)

     Called by h_psi:
     h_psi:calbec :     11.63s CPU     11.64s WALL (    2626 calls)
     vloc_psi     :     64.71s CPU     64.86s WALL (    2626 calls)
     add_vuspsi   :     12.56s CPU     12.57s WALL (    2626 calls)

     General routines
     calbec       :     16.26s CPU     16.28s WALL (    3331 calls)
     fft          :      0.17s CPU      0.17s WALL (     176 calls)
     ffts         :      0.02s CPU      0.02s WALL (      15 calls)
     fftw         :     67.07s CPU     67.23s WALL (  117238 calls)

     Parallel routines

     PWSCF        :   3m 4.27s CPU   3m 6.55s WALL


   This run was terminated on:  21:15:24  13Sep2024            

=------------------------------------------------------------------------------=
   JOB DONE.
=------------------------------------------------------------------------------=
