
     Program PWSCF v.6.7MaX starts on 13Sep2024 at 20:56:25 

     This program is part of the open-source Quantum ESPRESSO suite
     for quantum simulation of materials; please cite
         "P. Giannozzi et al., J. Phys.:Condens. Matter 21 395502 (2009);
         "P. Giannozzi et al., J. Phys.:Condens. Matter 29 465901 (2017);
          URL http://www.quantum-espresso.org", 
     in publications or presentations arising from this work. More details at
     http://www.quantum-espresso.org/quote

     Parallel version (MPI), running on     1 processors

     MPI processes distributed on     1 nodes
     Waiting for input...
     Reading input from standard input

     Current dimensions of program PWSCF are:
     Max number of different atomic species (ntypx) = 10
     Max number of k-points (npk) =  40000
     Max angular momentum in pseudopotentials (lmaxx) =  3
     file Cu.upf: wavefunction(s)  4S 3D renormalized
     file Ni.upf: wavefunction(s)  3P 3D renormalized
     file Pt.upf: wavefunction(s)  6S 5D renormalized

     Subspace diagonalization in iterative solution of the eigenvalue problem:
     a serial algorithm will be used


     G-vector sticks info
     --------------------
     sticks:   dense  smooth     PW     G-vecs:    dense   smooth      PW
     Sum        1057    1057    313                22659    22659    3695



     bravais-lattice index     =            2
     lattice parameter (alat)  =      11.3000  a.u.
     unit-cell volume          =     360.7243 (a.u.)^3
     number of atoms/cell      =            3
     number of atomic types    =            3
     number of electrons       =        39.00
     number of Kohn-Sham states=           28
     kinetic-energy cutoff     =      60.0000  Ry
     charge density cutoff     =     240.0000  Ry
     scf convergence threshold =      1.0E-07
     mixing beta               =       0.7000
     number of iterations used =            8  plain     mixing
     Exchange-correlation= SLA  PW   PBX  PBC
                           (   1   4   3   4   0   0   0)

     celldm(1)=  11.300000  celldm(2)=   0.000000  celldm(3)=   0.000000
     celldm(4)=   0.000000  celldm(5)=   0.000000  celldm(6)=   0.000000

     crystal axes: (cart. coord. in units of alat)
               a(1) = (  -0.500000   0.000000   0.500000 )  
               a(2) = (   0.000000   0.500000   0.500000 )  
               a(3) = (  -0.500000   0.500000   0.000000 )  

     reciprocal axes: (cart. coord. in units 2 pi/alat)
               b(1) = ( -1.000000 -1.000000  1.000000 )  
               b(2) = (  1.000000  1.000000  1.000000 )  
               b(3) = ( -1.000000  1.000000 -1.000000 )  


     PseudoPot. # 1 for Cu read from file:
     ././Cu.upf
     MD5 check sum: cfffd1f38ee05704b3e17f46f1730a6f
     Pseudo is Projector augmented-wave + core cor, Zval = 11.0
     Generated using &quot;atomic&quot; code by A. Dal Corso  v.6.3
     Shape of augmentation charge: PSQ
     Using radial grid of 1199 points,  6 beta functions with: 
                l(1) =   0
                l(2) =   0
                l(3) =   1
                l(4) =   1
                l(5) =   2
                l(6) =   2
     Q(r) pseudized with 0 coefficients 


     PseudoPot. # 2 for Ni read from file:
     ././Ni.upf
     MD5 check sum: 6e86b733589c3ad8389697b807d86aa7
     Pseudo is Projector augmented-wave + core cor, Zval = 18.0
     Generated using &quot;atomic&quot; code by A. Dal Corso  v.6.3
     Shape of augmentation charge: PSQ
     Using radial grid of 1195 points,  6 beta functions with: 
                l(1) =   0
                l(2) =   0
                l(3) =   1
                l(4) =   1
                l(5) =   2
                l(6) =   2
     Q(r) pseudized with 0 coefficients 


     PseudoPot. # 3 for Pt read from file:
     ././Pt.upf
     MD5 check sum: c5224e9cd7a5e36e81f2def9f50bb494
     Pseudo is Projector augmented-wave + core cor, Zval = 10.0
     Generated using &quot;atomic&quot; code by A. Dal Corso  v.6.3
     Shape of augmentation charge: PSQ
     Using radial grid of 1277 points,  6 beta functions with: 
                l(1) =   0
                l(2) =   0
                l(3) =   1
                l(4) =   1
                l(5) =   2
                l(6) =   2
     Q(r) pseudized with 0 coefficients 


     atomic species   valence    mass     pseudopotential
        Cu            11.00    63.54600     Cu( 1.00)
        Ni            18.00    58.69300     Ni( 1.00)
        Pt            10.00   195.08000     Pt( 1.00)

     24 Sym. Ops. (no inversion) found



   Cartesian axes

     site n.     atom                  positions (alat units)
         1           Cu  tau(   1) = (   0.0000000   0.0000000   0.0000000  )
         2           Ni  tau(   2) = (   0.5000000   0.5000000   0.5000000  )
         3           Pt  tau(   3) = (   0.2500000   0.2500000   0.2500000  )

     number of k points=    47  Gaussian smearing, width (Ry)=  0.0100
                       cart. coord. in units 2pi/alat
        k(    1) = (   0.0000000   0.0000000   0.0000000), wk =   0.0020000
        k(    2) = (  -0.1000000   0.1000000  -0.1000000), wk =   0.0160000
        k(    3) = (  -0.2000000   0.2000000  -0.2000000), wk =   0.0160000
        k(    4) = (  -0.3000000   0.3000000  -0.3000000), wk =   0.0160000
        k(    5) = (  -0.4000000   0.4000000  -0.4000000), wk =   0.0160000
        k(    6) = (   0.5000000  -0.5000000   0.5000000), wk =   0.0080000
        k(    7) = (   0.0000000   0.2000000   0.0000000), wk =   0.0120000
        k(    8) = (  -0.1000000   0.3000000  -0.1000000), wk =   0.0480000
        k(    9) = (  -0.2000000   0.4000000  -0.2000000), wk =   0.0480000
        k(   10) = (  -0.3000000   0.5000000  -0.3000000), wk =   0.0480000
        k(   11) = (   0.6000000  -0.4000000   0.6000000), wk =   0.0480000
        k(   12) = (   0.5000000  -0.3000000   0.5000000), wk =   0.0480000
        k(   13) = (   0.4000000  -0.2000000   0.4000000), wk =   0.0480000
        k(   14) = (   0.3000000  -0.1000000   0.3000000), wk =   0.0480000
        k(   15) = (   0.2000000   0.0000000   0.2000000), wk =   0.0240000
        k(   16) = (   0.0000000   0.4000000   0.0000000), wk =   0.0120000
        k(   17) = (  -0.1000000   0.5000000  -0.1000000), wk =   0.0480000
        k(   18) = (  -0.2000000   0.6000000  -0.2000000), wk =   0.0480000
        k(   19) = (   0.7000000  -0.3000000   0.7000000), wk =   0.0480000
        k(   20) = (   0.6000000  -0.2000000   0.6000000), wk =   0.0480000
        k(   21) = (   0.5000000  -0.1000000   0.5000000), wk =   0.0480000
        k(   22) = (   0.4000000   0.0000000   0.4000000), wk =   0.0240000
        k(   23) = (   0.0000000   0.6000000   0.0000000), wk =   0.0120000
        k(   24) = (  -0.1000000   0.7000000  -0.1000000), wk =   0.0480000
        k(   25) = (   0.8000000  -0.2000000   0.8000000), wk =   0.0480000
        k(   26) = (   0.7000000  -0.1000000   0.7000000), wk =   0.0480000
        k(   27) = (   0.6000000  -0.0000000   0.6000000), wk =   0.0240000
        k(   28) = (   0.0000000   0.8000000   0.0000000), wk =   0.0120000
        k(   29) = (   0.9000000  -0.1000000   0.9000000), wk =   0.0480000
        k(   30) = (   0.8000000   0.0000000   0.8000000), wk =   0.0240000
        k(   31) = (   0.0000000  -1.0000000   0.0000000), wk =   0.0060000
        k(   32) = (  -0.2000000   0.4000000   0.0000000), wk =   0.0480000
        k(   33) = (  -0.3000000   0.5000000  -0.1000000), wk =   0.0960000
        k(   34) = (   0.6000000  -0.4000000   0.8000000), wk =   0.0960000
        k(   35) = (   0.5000000  -0.3000000   0.7000000), wk =   0.0480000
        k(   36) = (  -0.2000000   0.6000000   0.0000000), wk =   0.0480000
        k(   37) = (   0.7000000  -0.3000000   0.9000000), wk =   0.0960000
        k(   38) = (   0.6000000  -0.2000000   0.8000000), wk =   0.0960000
        k(   39) = (   0.5000000  -0.1000000   0.7000000), wk =   0.0960000
        k(   40) = (   0.4000000   0.0000000   0.6000000), wk =   0.0480000
        k(   41) = (   0.8000000  -0.2000000   1.0000000), wk =   0.0480000
        k(   42) = (   0.7000000  -0.1000000   0.9000000), wk =   0.0960000
        k(   43) = (   0.6000000   0.0000000   0.8000000), wk =   0.0480000
        k(   44) = (  -0.2000000  -1.0000000   0.0000000), wk =   0.0240000
        k(   45) = (   0.6000000  -0.2000000   1.0000000), wk =   0.0480000
        k(   46) = (   0.5000000  -0.1000000   0.9000000), wk =   0.0480000
        k(   47) = (  -0.4000000  -1.0000000   0.0000000), wk =   0.0240000

     Dense  grid:    22659 G-vectors     FFT dimensions: (  40,  40,  40)

     Estimated max dynamical RAM per process >     143.98 MB

     Check: negative core charge=   -0.000002

     Initial potential from superposition of free atoms

     starting charge   38.99935, renormalised to   39.00000
     Starting wfcs are   28 randomized atomic wfcs
     Checking if some PAW data can be deallocated... 

     total cpu time spent up to now is        3.8 secs

     Self-consistent Calculation

     iteration #  1     ecut=    60.00 Ry     beta= 0.70
     Davidson diagonalization with overlap
     ethr =  1.00E-02,  avg # of iterations =  6.1

     total cpu time spent up to now is       13.9 secs

     total energy              =   -1387.87426170 Ry
     estimated scf accuracy    <       2.00472802 Ry

     iteration #  2     ecut=    60.00 Ry     beta= 0.70
     Davidson diagonalization with overlap
     ethr =  5.14E-03,  avg # of iterations =  3.1

     total cpu time spent up to now is       25.7 secs

     total energy              =   -1385.99664800 Ry
     estimated scf accuracy    <      57.68257578 Ry

     iteration #  3     ecut=    60.00 Ry     beta= 0.70
     Davidson diagonalization with overlap
     ethr =  5.14E-03,  avg # of iterations =  4.1

     total cpu time spent up to now is       36.0 secs

     total energy              =   -1389.39254518 Ry
     estimated scf accuracy    <       0.67926918 Ry

     iteration #  4     ecut=    60.00 Ry     beta= 0.70
     Davidson diagonalization with overlap
     ethr =  1.74E-03,  avg # of iterations =  1.2

     total cpu time spent up to now is       43.5 secs

     total energy              =   -1389.43578443 Ry
     estimated scf accuracy    <       0.12058984 Ry

     iteration #  5     ecut=    60.00 Ry     beta= 0.70
     Davidson diagonalization with overlap
     ethr =  3.09E-04,  avg # of iterations =  1.6

     total cpu time spent up to now is       50.9 secs

     total energy              =   -1389.43803545 Ry
     estimated scf accuracy    <       0.03253975 Ry

     iteration #  6     ecut=    60.00 Ry     beta= 0.70
     Davidson diagonalization with overlap
     ethr =  8.34E-05,  avg # of iterations =  2.0

     total cpu time spent up to now is       58.5 secs

     total energy              =   -1389.44170994 Ry
     estimated scf accuracy    <       0.00983832 Ry

     iteration #  7     ecut=    60.00 Ry     beta= 0.70
     Davidson diagonalization with overlap
     ethr =  2.52E-05,  avg # of iterations =  3.1

     total cpu time spent up to now is       66.6 secs

     total energy              =   -1389.44295368 Ry
     estimated scf accuracy    <       0.00726519 Ry

     iteration #  8     ecut=    60.00 Ry     beta= 0.70
     Davidson diagonalization with overlap
     ethr =  1.86E-05,  avg # of iterations =  1.4

     total cpu time spent up to now is       73.8 secs

     total energy              =   -1389.44365763 Ry
     estimated scf accuracy    <       0.00070253 Ry

     iteration #  9     ecut=    60.00 Ry     beta= 0.70
     Davidson diagonalization with overlap
     ethr =  1.80E-06,  avg # of iterations =  6.2

     total cpu time spent up to now is       84.0 secs

     total energy              =   -1389.44384892 Ry
     estimated scf accuracy    <       0.00005591 Ry

     iteration # 10     ecut=    60.00 Ry     beta= 0.70
     Davidson diagonalization with overlap
     ethr =  1.43E-07,  avg # of iterations =  3.3

     total cpu time spent up to now is       93.3 secs

     total energy              =   -1389.44385972 Ry
     estimated scf accuracy    <       0.00004749 Ry

     iteration # 11     ecut=    60.00 Ry     beta= 0.70
     Davidson diagonalization with overlap
     ethr =  1.22E-07,  avg # of iterations =  1.0

     total cpu time spent up to now is      100.2 secs

     total energy              =   -1389.44385147 Ry
     estimated scf accuracy    <       0.00005982 Ry

     iteration # 12     ecut=    60.00 Ry     beta= 0.70
     Davidson diagonalization with overlap
     ethr =  1.22E-07,  avg # of iterations =  1.0

     total cpu time spent up to now is      107.1 secs

     total energy              =   -1389.44385577 Ry
     estimated scf accuracy    <       0.00000129 Ry

     iteration # 13     ecut=    60.00 Ry     beta= 0.70
     Davidson diagonalization with overlap
     ethr =  3.32E-09,  avg # of iterations =  3.0

     total cpu time spent up to now is      116.7 secs

     total energy              =   -1389.44385588 Ry
     estimated scf accuracy    <       0.00000044 Ry

     iteration # 14     ecut=    60.00 Ry     beta= 0.70
     Davidson diagonalization with overlap
     ethr =  1.12E-09,  avg # of iterations =  1.6

     total cpu time spent up to now is      124.1 secs

     End of self-consistent calculation

          k = 0.0000 0.0000 0.0000 (  2741 PWs)   bands (ev):

   -92.8989 -53.2896 -53.2896 -53.2896   2.6780   6.3250   6.3250   6.4471
     6.4471   6.4471   7.5334   7.5334   7.5334   8.7201   8.7201   9.0661
     9.0661   9.0661   9.5009   9.5009  17.2788  18.6084  18.6084  18.6084
    18.7122  18.7122  18.7122  19.5905

          k =-0.1000 0.1000-0.1000 (  2803 PWs)   bands (ev):

   -92.8994 -53.2899 -53.2899 -53.2899   2.8140   6.3458   6.3458   6.4155
     6.4527   6.4527   7.5458   7.5588   7.5588   8.7073   8.7073   8.9769
     9.0495   9.0495   9.4996   9.4996  16.1129  17.5626  17.7006  17.7006
    19.4991  19.5436  19.5436  19.9087

          k =-0.2000 0.2000-0.2000 (  2809 PWs)   bands (ev):

   -92.8994 -53.2899 -53.2898 -53.2898   3.2090   6.3525   6.3665   6.3665
     6.5074   6.5074   7.5456   7.6287   7.6287   8.6372   8.6372   8.7616
     9.0319   9.0319   9.5019   9.5019  13.9193  16.8344  16.8344  17.5922
    19.3524  19.5346  19.5346  20.3647

          k =-0.3000 0.3000-0.3000 (  2833 PWs)   bands (ev):

   -92.8996 -53.2900 -53.2899 -53.2899   3.8060   6.3222   6.3541   6.3541
     6.6292   6.6292   7.4479   7.7263   7.7263   8.4766   8.4766   8.5437
     9.0600   9.0600   9.5111   9.5111  12.0101  16.1201  16.1201  17.6233
    18.8853  19.2332  19.2332  21.7094

          k =-0.4000 0.4000-0.4000 (  2833 PWs)   bands (ev):

   -92.8996 -53.2899 -53.2899 -53.2899   4.4457   6.3371   6.3371   6.3929
     6.7544   6.7544   7.1932   7.8323   7.8323   8.2799   8.2799   8.4148
     9.1103   9.1103   9.5203   9.5203  10.6259  15.6383  15.6383  17.6379
    18.5767  19.0182  19.0182  23.4847

          k = 0.5000-0.5000 0.5000 (  2824 PWs)   bands (ev):

   -92.8995 -53.2898 -53.2898 -53.2898   4.7565   6.3300   6.3300   6.5451
     6.8095   6.8095   6.9363   7.8998   7.8998   8.1685   8.1685   8.3728
     9.1346   9.1346   9.5238   9.5238  10.0993  15.4666  15.4666  17.6439
    18.4689  18.9435  18.9435  24.3665

          k = 0.0000 0.2000 0.0000 (  2794 PWs)   bands (ev):

   -92.8993 -53.2899 -53.2898 -53.2898   2.8602   6.3079   6.3929   6.3948
     6.4586   6.4586   7.4665   7.6141   7.6141   8.6996   8.7115   8.9864
     9.0310   9.0310   9.4505   9.5331  16.7495  16.7495  16.8831  17.3583
    19.0586  19.5013  20.3950  20.3950

          k =-0.1000 0.3000-0.1000 (  2806 PWs)   bands (ev):

   -92.8994 -53.2900 -53.2898 -53.2898   3.1712   6.2593   6.3780   6.4279
     6.4721   6.5215   7.4379   7.6902   7.7102   8.6414   8.6795   8.8337
     9.0087   9.0206   9.4121   9.5497  14.6375  15.9055  16.5427  17.5538
    18.7482  19.6515  20.4782  20.5254

          k =-0.2000 0.4000-0.2000 (  2834 PWs)   bands (ev):

   -92.8996 -53.2900 -53.2899 -53.2899   3.7081   6.1927   6.3945   6.4094
     6.5233   6.6598   7.4493   7.7314   7.8235   8.4759   8.5816   8.6188
     9.0335   9.0442   9.4074   9.5603  12.6089  15.2698  15.8341  17.4366
    19.5450  19.6489  20.2074  20.2656

          k =-0.3000 0.5000-0.3000 (  2844 PWs)   bands (ev):

   -92.8997 -53.2900 -53.2900 -53.2899   4.3569   6.1623   6.3821   6.4262
     6.6109   6.7939   7.4038   7.7604   7.9284   8.2544   8.4121   8.4732
     9.0796   9.0963   9.4475   9.5573  11.0042  14.9283  15.1123  17.3100
    19.4039  19.8394  19.8873  21.3177

          k = 0.6000-0.4000 0.6000 (  2838 PWs)   bands (ev):

   -92.8997 -53.2899 -53.2899 -53.2899   4.8207   6.1863   6.3592   6.5119
     6.6453   6.8562   7.2758   7.8513   7.9312   8.1600   8.2568   8.3945
     9.1010   9.1404   9.5170   9.5262  10.1304  14.5728  14.9551  17.3294
    19.1112  19.5402  20.0091  23.0132

          k = 0.5000-0.3000 0.5000 (  2841 PWs)   bands (ev):

   -92.8997 -53.2899 -53.2899 -53.2899   4.7102   6.2136   6.3486   6.4592
     6.6912   6.7977   7.3292   7.8001   7.9475   8.1792   8.2925   8.4080
     9.0667   9.1598   9.4592   9.5671  10.3298  14.3369  15.3705  17.4966
    18.8634  19.2896  20.3486  23.2215

          k = 0.4000-0.2000 0.4000 (  2835 PWs)   bands (ev):

   -92.8996 -53.2899 -53.2899 -53.2898   4.1360   6.2241   6.3518   6.4044
     6.6573   6.6712   7.4843   7.6891   7.8945   8.3226   8.4731   8.5014
     9.0277   9.1195   9.4077   9.5793  11.4964  14.4404  16.1226  17.8110
    18.7181  19.1588  20.7263  21.5425

          k = 0.3000-0.1000 0.3000 (  2829 PWs)   bands (ev):

   -92.8996 -53.2900 -53.2899 -53.2898   3.5051   6.2714   6.3596   6.4072
     6.5211   6.5804   7.5436   7.6046   7.7899   8.5290   8.6214   8.6700
     9.0147   9.0490   9.4089   9.5652  13.2677  14.8326  17.1117  18.1961
    18.7237  19.1092  20.1183  20.8297

          k = 0.2000 0.0000 0.2000 (  2814 PWs)   bands (ev):

   -92.8995 -53.2900 -53.2899 -53.2899   3.0375   6.3450   6.3495   6.4034
     6.4568   6.4924   7.5352   7.5566   7.6739   8.6623   8.6918   8.8653
     9.0233   9.0350   9.4475   9.5381  15.3495  15.4655  18.1213  18.1238
    18.8843  19.1660  19.4375  20.1295

          k = 0.0000 0.4000 0.0000 (  2826 PWs)   bands (ev):

   -92.8996 -53.2900 -53.2899 -53.2899   3.3970   6.1321   6.3464   6.4903
     6.4903   6.5903   7.3329   7.8316   7.8316   8.6236   8.6738   8.8672
     8.9692   8.9692   9.3209   9.5625  15.0016  15.0016  15.2672  16.5192
    17.8749  21.1695  21.2824  21.2824

          k =-0.1000 0.5000-0.1000 (  2841 PWs)   bands (ev):

   -92.8997 -53.2901 -53.2900 -53.2899   3.8604   6.0144   6.3422   6.4873
     6.5057   6.7460   7.3130   7.9333   7.9583   8.4873   8.6257   8.7348
     9.0024   9.0065   9.2810   9.5690  13.1834  14.2976  14.6040  16.7752
    17.9689  21.3336  21.5132  21.7429

          k =-0.2000 0.6000-0.2000 (  2834 PWs)   bands (ev):

   -92.8996 -53.2899 -53.2899 -53.2898   4.4785   5.9361   6.3778   6.4615
     6.5183   6.9068   7.3666   7.9721   8.0684   8.2361   8.5124   8.5971
     9.0430   9.0807   9.3612   9.5732  11.4475  13.8046  13.9109  16.8736
    19.1321  20.9585  21.2546  21.8341

          k = 0.7000-0.3000 0.7000 (  2831 PWs)   bands (ev):

   -92.8996 -53.2899 -53.2899 -53.2898   5.0197   5.9395   6.4281   6.4411
     6.5169   6.9992   7.4662   7.9732   7.9806   8.1799   8.3965   8.4838
     9.0132   9.1775   9.5087   9.5668  10.2394  13.1225  13.9408  16.9478
    20.4592  20.7108  20.8248  22.1426

          k = 0.6000-0.2000 0.6000 (  2831 PWs)   bands (ev):

   -92.8996 -53.2899 -53.2899 -53.2898   5.0826   6.0405   6.3994   6.4264
     6.5559   6.9452   7.5998   7.7963   7.9921   8.2856   8.3083   8.4403
     8.9698   9.1876   9.4771   9.6004  10.1296  12.6969  14.4096  17.1255
    20.0537  20.4066  21.8904  23.0603

          k = 0.5000-0.1000 0.5000 (  2828 PWs)   bands (ev):

   -92.8996 -53.2899 -53.2899 -53.2898   4.6353   6.1034   6.3820   6.3898
     6.6238   6.7754   7.6494   7.6977   8.0628   8.1956   8.4539   8.4857
     8.9506   9.1936   9.3179   9.6234  11.1202  12.6250  15.2317  17.4332
    19.7652  20.0486  21.2672  22.2769

          k = 0.4000 0.0000 0.4000 (  2830 PWs)   bands (ev):

   -92.8996 -53.2899 -53.2899 -53.2899   4.0189   6.1721   6.3724   6.4052
     6.6084   6.6275   7.6061   7.6333   7.9582   8.3443   8.5678   8.5702
     8.9726   9.1330   9.3078   9.6056  12.5684  13.0516  16.2523  17.8820
    19.3705  19.6418  20.1752  21.1606

          k = 0.0000 0.6000 0.0000 (  2842 PWs)   bands (ev):

   -92.8997 -53.2900 -53.2900 -53.2900   4.2486   5.8572   6.2694   6.5326
     6.5326   6.8972   7.2129   8.0737   8.0737   8.4483   8.6251   8.7948
     9.0294   9.0294   9.1785   9.5723  13.0687  13.4734  13.4734  16.3013
    17.2735  22.5492  22.5492  23.2569

          k =-0.1000 0.7000-0.1000 (  2833 PWs)   bands (ev):

   -92.8996 -53.2900 -53.2899 -53.2898   4.8109   5.7501   6.2482   6.5332
     6.5381   7.0792   7.1923   8.1325   8.1334   8.2667   8.5803   8.7294
     9.0350   9.1680   9.2953   9.5960  11.7487  12.7097  12.9563  16.5193
    17.5615  22.6677  22.7902  23.9375

          k = 0.8000-0.2000 0.8000 (  2829 PWs)   bands (ev):

   -92.8996 -53.2899 -53.2898 -53.2898   5.3546   5.7419   6.2850   6.4863
     6.5036   7.2235   7.2808   7.9357   8.1840   8.2663   8.4951   8.6500
     8.9421   9.3209   9.5231   9.6831  10.4739  11.9063  12.9012  16.6790
    18.8264  22.2002  22.3638  24.0876

          k = 0.7000-0.1000 0.7000 (  2839 PWs)   bands (ev):

   -92.8997 -53.2899 -53.2899 -53.2898   5.4410   5.9647   6.3388   6.4041
     6.4613   7.1999   7.4974   7.7573   8.2270   8.3460   8.4181   8.5546
     8.8704   9.2934   9.6341   9.6558  10.0932  11.3258  13.3605  16.8356
    20.5241  21.7143  21.7514  23.2741

          k = 0.6000-0.0000 0.6000 (  2816 PWs)   bands (ev):

   -92.8995 -53.2898 -53.2898 -53.2897   5.1515   6.0434   6.3325   6.4195
     6.5225   6.9866   7.6972   7.7188   8.0966   8.3314   8.4133   8.5008
     8.8753   9.1504   9.4392   9.6488  10.8550  11.2768  14.2044  17.0800
    21.0141  21.1226  21.4756  22.7833

          k = 0.0000 0.8000 0.0000 (  2838 PWs)   bands (ev):

   -92.8996 -53.2899 -53.2899 -53.2899   5.3065   5.6309   6.1707   6.5695
     6.5695   7.0006   7.2771   8.1473   8.1705   8.1705   8.5958   8.7582
     9.0904   9.3686   9.3686   9.6473  11.2247  12.2620  12.2620  16.2101
    17.0212  24.1538  24.1538  25.3895

          k = 0.9000-0.1000 0.9000 (  2843 PWs)   bands (ev):

   -92.8997 -53.2900 -53.2899 -53.2899   5.5751   5.8397   6.1698   6.4796
     6.5618   6.9512   7.4650   7.8789   8.1961   8.2457   8.5620   8.7326
     9.0012   9.5336   9.5871   9.8162  10.5092  11.5024  12.0624  16.4317
    17.4003  24.0133  24.1712  25.6443

          k = 0.8000 0.0000 0.8000 (  2840 PWs)   bands (ev):

   -92.8997 -53.2900 -53.2899 -53.2898   5.5697   6.1352   6.2265   6.2494
     6.5198   7.2060   7.5057   7.6669   8.2629   8.3349   8.4948   8.6746
     8.8813   9.5410   9.6573   9.9257  10.2588  10.6855  12.4936  16.6314
    18.7345  23.0229  23.4397  23.9657

          k = 0.0000-1.0000 0.0000 (  2874 PWs)   bands (ev):

   -92.8999 -53.2902 -53.2900 -53.2900   5.5397   6.0780   6.2275   6.5472
     6.5842   6.5842   7.5880   7.8592   8.1774   8.1774   8.5840   8.7493
     9.0640   9.6525   9.6525   9.8992  10.2501  11.7057  11.7057  16.1855
    16.9546  25.4699  25.4699  25.8277

          k =-0.2000 0.4000 0.0000 (  2827 PWs)   bands (ev):

   -92.8996 -53.2901 -53.2899 -53.2898   3.5573   6.1611   6.3824   6.4444
     6.4868   6.6261   7.4127   7.7595   7.8552   8.5322   8.6429   8.7189
     8.9965   9.0313   9.3489   9.5709  13.8118  14.1668  16.1454  17.6167
    18.4865  19.9379  20.4470  21.5165

          k =-0.3000 0.5000-0.1000 (  2837 PWs)   bands (ev):

   -92.8996 -53.2900 -53.2899 -53.2899   4.1382   6.0768   6.4013   6.4293
     6.5290   6.7564   7.4536   7.8079   7.9851   8.3253   8.5469   8.5777
     8.9892   9.1195   9.3257   9.5897  12.0510  13.5726  15.2795  17.7677
    19.0495  19.7598  20.7072  21.8984

          k = 0.6000-0.4000 0.8000 (  2833 PWs)   bands (ev):

   -92.8996 -53.2899 -53.2899 -53.2898   4.7528   6.0402   6.3919   6.4451
     6.5746   6.8753   7.5069   7.8265   8.0344   8.1610   8.4105   8.4696
     8.9974   9.1808   9.4047   9.5925  10.6238  13.3610  14.5367  17.6801
    18.9853  20.6627  21.2337  21.7376

          k = 0.5000-0.3000 0.7000 (  2834 PWs)   bands (ev):

   -92.8996 -53.2899 -53.2899 -53.2898   5.0452   6.0440   6.3771   6.4888
     6.5715   6.9279   7.5300   7.8432   7.9387   8.2156   8.3141   8.4186
     8.9967   9.2199   9.4889   9.5784  10.0203  13.3513  14.2036  17.6452
    18.8958  21.0178  21.2338  22.9247

          k =-0.2000 0.6000 0.0000 (  2832 PWs)   bands (ev):

   -92.8996 -53.2900 -53.2899 -53.2898   4.3728   5.8936   6.3274   6.4841
     6.5278   6.8999   7.3061   8.0198   8.0857   8.3220   8.5820   8.6815
     8.9784   9.1249   9.2588   9.5833  12.3574  12.9341  13.9587  17.1524
    17.9527  20.9501  22.3338  23.0524

          k = 0.7000-0.3000 0.9000 (  2831 PWs)   bands (ev):

   -92.8996 -53.2899 -53.2898 -53.2898   4.9732   5.8290   6.3512   6.4397
     6.5464   7.0455   7.3796   8.0611   8.0843   8.1833   8.5028   8.6053
     8.9269   9.2513   9.3872   9.6190  10.9961  12.3822  13.2978  17.4413
    18.9959  20.3929  22.6853  23.3336

          k = 0.6000-0.2000 0.8000 (  2837 PWs)   bands (ev):

   -92.8996 -53.2899 -53.2899 -53.2898   5.3496   5.8751   6.3733   6.3999
     6.5469   7.1067   7.5374   7.8396   8.1331   8.2456   8.4384   8.5173
     8.8637   9.3430   9.5470   9.7021  10.0049  12.0564  13.1381  17.6036
    19.8617  20.6819  22.4366  22.9713

          k = 0.5000-0.1000 0.7000 (  2837 PWs)   bands (ev):

   -92.8996 -53.2899 -53.2899 -53.2898   5.2147   5.9497   6.3514   6.4326
     6.5441   7.0210   7.6227   7.8114   8.0783   8.2607   8.4538   8.4889
     8.8577   9.2658   9.4567   9.6518  10.4240  11.8069  13.6132  17.8884
    19.4924  21.0483  22.2349  22.5887

          k = 0.4000 0.0000 0.6000 (  2823 PWs)   bands (ev):

   -92.8995 -53.2899 -53.2898 -53.2898   4.7101   5.9868   6.3883   6.4316
     6.5461   6.8722   7.5280   7.8727   8.0950   8.1937   8.5051   8.5288
     8.9162   9.2395   9.2826   9.6261  11.5023  12.0538  14.4109  18.3005
    18.9393  19.9486  21.6112  23.0128

          k = 0.8000-0.2000 1.0000 (  2832 PWs)   bands (ev):

   -92.8996 -53.2899 -53.2899 -53.2898   5.3582   5.6696   6.2281   6.4736
     6.5787   7.1603   7.2597   8.0051   8.1816   8.2478   8.5505   8.7090
     8.9457   9.3844   9.4505   9.6779  11.0242  11.8957  12.3104  16.9392
    17.6900  22.1886  24.0375  25.0549

          k = 0.7000-0.1000 0.9000 (  2832 PWs)   bands (ev):

   -92.8996 -53.2899 -53.2898 -53.2898   5.6123   5.8457   6.2679   6.3350
     6.5810   7.2880   7.3799   7.7763   8.2161   8.3397   8.4971   8.6460
     8.8164   9.4741   9.6480   9.9079  10.2482  11.1510  12.1810  17.3064
    18.8445  21.5605  23.2911  24.1753

          k = 0.6000 0.0000 0.8000 (  2836 PWs)   bands (ev):

   -92.8996 -53.2900 -53.2899 -53.2898   5.5362   5.9624   6.2746   6.3589
     6.5506   7.2451   7.5496   7.7088   8.2501   8.3245   8.4782   8.5502
     8.7659   9.4110   9.6206   9.7190  10.5145  10.6908  12.7442  17.5681
    20.5923  20.7963  21.7611  23.3846

          k =-0.2000-1.0000 0.0000 (  2842 PWs)   bands (ev):

   -92.8997 -53.2900 -53.2899 -53.2898   5.5796   6.1483   6.1982   6.2335
     6.5994   6.9998   7.6319   7.6660   8.1843   8.3176   8.5422   8.7146
     8.9168   9.5708   9.6933  10.0648  10.1476  11.4047  11.6013  16.8797
    17.6160  23.1765  24.2786  25.1983

          k = 0.6000-0.2000 1.0000 (  2842 PWs)   bands (ev):

   -92.8997 -53.2900 -53.2898 -53.2898   5.4617   5.7841   6.3409   6.3556
     6.5950   7.1818   7.4730   7.8731   8.1931   8.2222   8.4925   8.5910
     8.7856   9.3997   9.5346   9.7228  10.6788  11.2452  12.5100  18.6257
    19.1452  19.9378  22.8123  23.6825

          k = 0.5000-0.1000 0.9000 (  2820 PWs)   bands (ev):

   -92.8995 -53.2899 -53.2898 -53.2897   5.6495   5.8203   6.2810   6.3494
     6.6166   7.2539   7.5891   7.7225   8.2320   8.2857   8.4745   8.5469
     8.7301   9.4526   9.6842   9.9025  10.1443  11.0918  12.1037  18.9261
    19.4071  20.8543  20.9948  24.0968

          k =-0.4000-1.0000 0.0000 (  2830 PWs)   bands (ev):

   -92.8996 -53.2899 -53.2898 -53.2897   5.7011   5.9081   6.2282   6.2971
     6.6367   7.4124   7.4382   7.6874   8.2040   8.4311   8.5055   8.5076
     8.7307   9.5000   9.7603   9.9646  10.4026  10.8656  11.4760  18.5412
    19.2948  20.7144  21.6156  24.8836

     the Fermi energy is     9.6635 ev

!    total energy              =   -1389.44385587 Ry

     total all-electron energy =    -43178.943637 Ry
     estimated scf accuracy    <       0.00000006 Ry
     smearing contrib. (-TS)   =      -0.00535362 Ry
     internal energy E=F+TS    =   -1389.43850224 Ry

     The total energy is F=E-TS. E is the sum of the following terms:
     one-electron contribution =    -309.28665823 Ry
     hartree contribution      =     188.49016623 Ry
     xc contribution           =    -102.55879908 Ry
     ewald contribution        =    -300.47848811 Ry
     one-center paw contrib.   =    -865.60472305 Ry

     convergence has been achieved in  14 iterations

     Writing output data file ././cunipt.save/

     init_run     :      3.53s CPU      3.62s WALL (       1 calls)
     electrons    :    118.84s CPU    120.28s WALL (       1 calls)

     Called by init_run:
     wfcinit      :      2.43s CPU      2.45s WALL (       1 calls)
     potinit      :      0.34s CPU      0.35s WALL (       1 calls)
     hinit0       :      0.68s CPU      0.68s WALL (       1 calls)

     Called by electrons:
     c_bands      :     98.55s CPU     98.69s WALL (      14 calls)
     sum_band     :     14.71s CPU     15.43s WALL (      14 calls)
     v_of_rho     :      0.28s CPU      0.28s WALL (      15 calls)
     newd         :      0.91s CPU      1.53s WALL (      15 calls)
     PAW_pot      :      4.72s CPU      4.74s WALL (      15 calls)
     mix_rho      :      0.05s CPU      0.05s WALL (      14 calls)

     Called by c_bands:
     init_us_2    :      1.16s CPU      1.17s WALL (    1363 calls)
     cegterg      :     94.45s CPU     94.59s WALL (     658 calls)

     Called by *egterg:
     cdiaghg      :      1.83s CPU      1.83s WALL (    2485 calls)
     h_psi        :     55.29s CPU     55.41s WALL (    2532 calls)
     s_psi        :      8.68s CPU      8.69s WALL (    2532 calls)
     g_psi        :      0.33s CPU      0.33s WALL (    1827 calls)

     Called by h_psi:
     h_psi:calbec :      8.06s CPU      8.06s WALL (    2532 calls)
     vloc_psi     :     38.25s CPU     38.35s WALL (    2532 calls)
     add_vuspsi   :      8.74s CPU      8.75s WALL (    2532 calls)

     General routines
     calbec       :     11.29s CPU     11.30s WALL (    3190 calls)
     fft          :      0.13s CPU      0.13s WALL (     165 calls)
     ffts         :      0.01s CPU      0.01s WALL (      14 calls)
     fftw         :     41.88s CPU     41.98s WALL (  107888 calls)

     Parallel routines

     PWSCF        :   2m 2.59s CPU   2m 4.17s WALL


   This run was terminated on:  20:58:29  13Sep2024            

=------------------------------------------------------------------------------=
   JOB DONE.
=------------------------------------------------------------------------------=
