
     Program PWSCF v.6.7MaX starts on 13Sep2024 at 20:35:41 

     This program is part of the open-source Quantum ESPRESSO suite
     for quantum simulation of materials; please cite
         "P. Giannozzi et al., J. Phys.:Condens. Matter 21 395502 (2009);
         "P. Giannozzi et al., J. Phys.:Condens. Matter 29 465901 (2017);
          URL http://www.quantum-espresso.org", 
     in publications or presentations arising from this work. More details at
     http://www.quantum-espresso.org/quote

     Parallel version (MPI), running on     1 processors

     MPI processes distributed on     1 nodes
     Waiting for input...
     Reading input from standard input

     Current dimensions of program PWSCF are:
     Max number of different atomic species (ntypx) = 10
     Max number of k-points (npk) =  40000
     Max angular momentum in pseudopotentials (lmaxx) =  3
     file Cu.upf: wavefunction(s)  4S 3D renormalized
     file Ni.upf: wavefunction(s)  3P 3D renormalized
     file Pt.upf: wavefunction(s)  6S 5D renormalized

     Subspace diagonalization in iterative solution of the eigenvalue problem:
     a serial algorithm will be used


     G-vector sticks info
     --------------------
     sticks:   dense  smooth     PW     G-vecs:    dense   smooth      PW
     Sum         931     931    283                18763    18763    3119



     bravais-lattice index     =            2
     lattice parameter (alat)  =      10.6000  a.u.
     unit-cell volume          =     297.7540 (a.u.)^3
     number of atoms/cell      =            3
     number of atomic types    =            3
     number of electrons       =        39.00
     number of Kohn-Sham states=           28
     kinetic-energy cutoff     =      60.0000  Ry
     charge density cutoff     =     240.0000  Ry
     scf convergence threshold =      1.0E-07
     mixing beta               =       0.7000
     number of iterations used =            8  plain     mixing
     Exchange-correlation= SLA  PW   PBX  PBC
                           (   1   4   3   4   0   0   0)

     celldm(1)=  10.600000  celldm(2)=   0.000000  celldm(3)=   0.000000
     celldm(4)=   0.000000  celldm(5)=   0.000000  celldm(6)=   0.000000

     crystal axes: (cart. coord. in units of alat)
               a(1) = (  -0.500000   0.000000   0.500000 )  
               a(2) = (   0.000000   0.500000   0.500000 )  
               a(3) = (  -0.500000   0.500000   0.000000 )  

     reciprocal axes: (cart. coord. in units 2 pi/alat)
               b(1) = ( -1.000000 -1.000000  1.000000 )  
               b(2) = (  1.000000  1.000000  1.000000 )  
               b(3) = ( -1.000000  1.000000 -1.000000 )  


     PseudoPot. # 1 for Cu read from file:
     ././Cu.upf
     MD5 check sum: cfffd1f38ee05704b3e17f46f1730a6f
     Pseudo is Projector augmented-wave + core cor, Zval = 11.0
     Generated using &quot;atomic&quot; code by A. Dal Corso  v.6.3
     Shape of augmentation charge: PSQ
     Using radial grid of 1199 points,  6 beta functions with: 
                l(1) =   0
                l(2) =   0
                l(3) =   1
                l(4) =   1
                l(5) =   2
                l(6) =   2
     Q(r) pseudized with 0 coefficients 


     PseudoPot. # 2 for Ni read from file:
     ././Ni.upf
     MD5 check sum: 6e86b733589c3ad8389697b807d86aa7
     Pseudo is Projector augmented-wave + core cor, Zval = 18.0
     Generated using &quot;atomic&quot; code by A. Dal Corso  v.6.3
     Shape of augmentation charge: PSQ
     Using radial grid of 1195 points,  6 beta functions with: 
                l(1) =   0
                l(2) =   0
                l(3) =   1
                l(4) =   1
                l(5) =   2
                l(6) =   2
     Q(r) pseudized with 0 coefficients 


     PseudoPot. # 3 for Pt read from file:
     ././Pt.upf
     MD5 check sum: c5224e9cd7a5e36e81f2def9f50bb494
     Pseudo is Projector augmented-wave + core cor, Zval = 10.0
     Generated using &quot;atomic&quot; code by A. Dal Corso  v.6.3
     Shape of augmentation charge: PSQ
     Using radial grid of 1277 points,  6 beta functions with: 
                l(1) =   0
                l(2) =   0
                l(3) =   1
                l(4) =   1
                l(5) =   2
                l(6) =   2
     Q(r) pseudized with 0 coefficients 


     atomic species   valence    mass     pseudopotential
        Cu            11.00    63.54600     Cu( 1.00)
        Ni            18.00    58.69300     Ni( 1.00)
        Pt            10.00   195.08000     Pt( 1.00)

     24 Sym. Ops. (no inversion) found



   Cartesian axes

     site n.     atom                  positions (alat units)
         1           Cu  tau(   1) = (   0.0000000   0.0000000   0.0000000  )
         2           Ni  tau(   2) = (   0.5000000   0.5000000   0.5000000  )
         3           Pt  tau(   3) = (   0.2500000   0.2500000   0.2500000  )

     number of k points=    47  Gaussian smearing, width (Ry)=  0.0100
                       cart. coord. in units 2pi/alat
        k(    1) = (   0.0000000   0.0000000   0.0000000), wk =   0.0020000
        k(    2) = (  -0.1000000   0.1000000  -0.1000000), wk =   0.0160000
        k(    3) = (  -0.2000000   0.2000000  -0.2000000), wk =   0.0160000
        k(    4) = (  -0.3000000   0.3000000  -0.3000000), wk =   0.0160000
        k(    5) = (  -0.4000000   0.4000000  -0.4000000), wk =   0.0160000
        k(    6) = (   0.5000000  -0.5000000   0.5000000), wk =   0.0080000
        k(    7) = (   0.0000000   0.2000000   0.0000000), wk =   0.0120000
        k(    8) = (  -0.1000000   0.3000000  -0.1000000), wk =   0.0480000
        k(    9) = (  -0.2000000   0.4000000  -0.2000000), wk =   0.0480000
        k(   10) = (  -0.3000000   0.5000000  -0.3000000), wk =   0.0480000
        k(   11) = (   0.6000000  -0.4000000   0.6000000), wk =   0.0480000
        k(   12) = (   0.5000000  -0.3000000   0.5000000), wk =   0.0480000
        k(   13) = (   0.4000000  -0.2000000   0.4000000), wk =   0.0480000
        k(   14) = (   0.3000000  -0.1000000   0.3000000), wk =   0.0480000
        k(   15) = (   0.2000000   0.0000000   0.2000000), wk =   0.0240000
        k(   16) = (   0.0000000   0.4000000   0.0000000), wk =   0.0120000
        k(   17) = (  -0.1000000   0.5000000  -0.1000000), wk =   0.0480000
        k(   18) = (  -0.2000000   0.6000000  -0.2000000), wk =   0.0480000
        k(   19) = (   0.7000000  -0.3000000   0.7000000), wk =   0.0480000
        k(   20) = (   0.6000000  -0.2000000   0.6000000), wk =   0.0480000
        k(   21) = (   0.5000000  -0.1000000   0.5000000), wk =   0.0480000
        k(   22) = (   0.4000000   0.0000000   0.4000000), wk =   0.0240000
        k(   23) = (   0.0000000   0.6000000   0.0000000), wk =   0.0120000
        k(   24) = (  -0.1000000   0.7000000  -0.1000000), wk =   0.0480000
        k(   25) = (   0.8000000  -0.2000000   0.8000000), wk =   0.0480000
        k(   26) = (   0.7000000  -0.1000000   0.7000000), wk =   0.0480000
        k(   27) = (   0.6000000  -0.0000000   0.6000000), wk =   0.0240000
        k(   28) = (   0.0000000   0.8000000   0.0000000), wk =   0.0120000
        k(   29) = (   0.9000000  -0.1000000   0.9000000), wk =   0.0480000
        k(   30) = (   0.8000000   0.0000000   0.8000000), wk =   0.0240000
        k(   31) = (   0.0000000  -1.0000000   0.0000000), wk =   0.0060000
        k(   32) = (  -0.2000000   0.4000000   0.0000000), wk =   0.0480000
        k(   33) = (  -0.3000000   0.5000000  -0.1000000), wk =   0.0960000
        k(   34) = (   0.6000000  -0.4000000   0.8000000), wk =   0.0960000
        k(   35) = (   0.5000000  -0.3000000   0.7000000), wk =   0.0480000
        k(   36) = (  -0.2000000   0.6000000   0.0000000), wk =   0.0480000
        k(   37) = (   0.7000000  -0.3000000   0.9000000), wk =   0.0960000
        k(   38) = (   0.6000000  -0.2000000   0.8000000), wk =   0.0960000
        k(   39) = (   0.5000000  -0.1000000   0.7000000), wk =   0.0960000
        k(   40) = (   0.4000000   0.0000000   0.6000000), wk =   0.0480000
        k(   41) = (   0.8000000  -0.2000000   1.0000000), wk =   0.0480000
        k(   42) = (   0.7000000  -0.1000000   0.9000000), wk =   0.0960000
        k(   43) = (   0.6000000   0.0000000   0.8000000), wk =   0.0480000
        k(   44) = (  -0.2000000  -1.0000000   0.0000000), wk =   0.0240000
        k(   45) = (   0.6000000  -0.2000000   1.0000000), wk =   0.0480000
        k(   46) = (   0.5000000  -0.1000000   0.9000000), wk =   0.0480000
        k(   47) = (  -0.4000000  -1.0000000   0.0000000), wk =   0.0240000

     Dense  grid:    18763 G-vectors     FFT dimensions: (  40,  40,  40)

     Estimated max dynamical RAM per process >     120.46 MB

     Check: negative core charge=   -0.000002

     Initial potential from superposition of free atoms

     starting charge   38.99935, renormalised to   39.00000
     Starting wfcs are   28 randomized atomic wfcs
     Checking if some PAW data can be deallocated... 

     total cpu time spent up to now is        3.5 secs

     Self-consistent Calculation

     iteration #  1     ecut=    60.00 Ry     beta= 0.70
     Davidson diagonalization with overlap
     ethr =  1.00E-02,  avg # of iterations =  6.0

     total cpu time spent up to now is       12.7 secs

     total energy              =   -1388.02602475 Ry
     estimated scf accuracy    <       1.82948101 Ry

     iteration #  2     ecut=    60.00 Ry     beta= 0.70
     Davidson diagonalization with overlap
     ethr =  4.69E-03,  avg # of iterations =  3.2

     total cpu time spent up to now is       22.3 secs

     total energy              =   -1385.88202203 Ry
     estimated scf accuracy    <      50.69240747 Ry

     iteration #  3     ecut=    60.00 Ry     beta= 0.70
     Davidson diagonalization with overlap
     ethr =  4.69E-03,  avg # of iterations =  4.0

     total cpu time spent up to now is       31.3 secs

     total energy              =   -1389.39393443 Ry
     estimated scf accuracy    <       0.61675671 Ry

     iteration #  4     ecut=    60.00 Ry     beta= 0.70
     Davidson diagonalization with overlap
     ethr =  1.58E-03,  avg # of iterations =  2.0

     total cpu time spent up to now is       38.3 secs

     total energy              =   -1389.44325212 Ry
     estimated scf accuracy    <       0.09005907 Ry

     iteration #  5     ecut=    60.00 Ry     beta= 0.70
     Davidson diagonalization with overlap
     ethr =  2.31E-04,  avg # of iterations =  1.9

     total cpu time spent up to now is       45.0 secs

     total energy              =   -1389.44329407 Ry
     estimated scf accuracy    <       0.02927714 Ry

     iteration #  6     ecut=    60.00 Ry     beta= 0.70
     Davidson diagonalization with overlap
     ethr =  7.51E-05,  avg # of iterations =  2.2

     total cpu time spent up to now is       52.3 secs

     total energy              =   -1389.44773307 Ry
     estimated scf accuracy    <       0.01885100 Ry

     iteration #  7     ecut=    60.00 Ry     beta= 0.70
     Davidson diagonalization with overlap
     ethr =  4.83E-05,  avg # of iterations =  1.1

     total cpu time spent up to now is       58.4 secs

     total energy              =   -1389.44991315 Ry
     estimated scf accuracy    <       0.00287055 Ry

     iteration #  8     ecut=    60.00 Ry     beta= 0.70
     Davidson diagonalization with overlap
     ethr =  7.36E-06,  avg # of iterations =  4.7

     total cpu time spent up to now is       65.9 secs

     total energy              =   -1389.45028788 Ry
     estimated scf accuracy    <       0.00016215 Ry

     iteration #  9     ecut=    60.00 Ry     beta= 0.70
     Davidson diagonalization with overlap
     ethr =  4.16E-07,  avg # of iterations =  4.8

     total cpu time spent up to now is       75.7 secs

     total energy              =   -1389.45037222 Ry
     estimated scf accuracy    <       0.00001769 Ry

     iteration # 10     ecut=    60.00 Ry     beta= 0.70
     Davidson diagonalization with overlap
     ethr =  4.54E-08,  avg # of iterations =  2.7

     total cpu time spent up to now is       82.8 secs

     total energy              =   -1389.45037176 Ry
     estimated scf accuracy    <       0.00000888 Ry

     iteration # 11     ecut=    60.00 Ry     beta= 0.70
     Davidson diagonalization with overlap
     ethr =  2.28E-08,  avg # of iterations =  1.3

     total cpu time spent up to now is       89.1 secs

     total energy              =   -1389.45037214 Ry
     estimated scf accuracy    <       0.00000121 Ry

     iteration # 12     ecut=    60.00 Ry     beta= 0.70
     Davidson diagonalization with overlap
     ethr =  3.09E-09,  avg # of iterations =  3.1

     total cpu time spent up to now is       96.9 secs

     total energy              =   -1389.45037232 Ry
     estimated scf accuracy    <       0.00000018 Ry

     iteration # 13     ecut=    60.00 Ry     beta= 0.70
     Davidson diagonalization with overlap
     ethr =  4.62E-10,  avg # of iterations =  3.1

     total cpu time spent up to now is      105.1 secs

     End of self-consistent calculation

          k = 0.0000 0.0000 0.0000 (  2277 PWs)   bands (ev):

   -89.9125 -50.3074 -50.3074 -50.3074   4.6146   8.5262   8.5262   8.7869
     8.7869   8.7869  10.1672  10.1672  10.1672  11.7933  11.7933  12.1433
    12.1433  12.1433  12.7593  12.7593  22.2316  23.1989  23.1989  23.1989
    23.2231  23.2231  23.2231  24.0254

          k =-0.1000 0.1000-0.1000 (  2331 PWs)   bands (ev):

   -89.9130 -50.3079 -50.3079 -50.3079   4.7742   8.5587   8.5587   8.7493
     8.7861   8.7861  10.1847  10.2036  10.2036  11.7656  11.7656  12.0188
    12.1313  12.1313  12.7535  12.7535  20.4666  22.1280  22.1280  22.3621
    23.7422  24.1093  24.1093  24.4972

          k =-0.2000 0.2000-0.2000 (  2331 PWs)   bands (ev):

   -89.9130 -50.3080 -50.3079 -50.3079   5.2360   8.6195   8.6195   8.6790
     8.8178   8.8178  10.1827  10.3020  10.3020  11.6448  11.6448  11.7240
    12.1297  12.1297  12.7517  12.7517  17.9488  21.1119  21.1119  22.1789
    23.8316  23.9082  23.9082  25.2341

          k =-0.3000 0.3000-0.3000 (  2355 PWs)   bands (ev):

   -89.9132 -50.3084 -50.3079 -50.3079   5.9272   8.6277   8.6277   8.6582
     8.9481   8.9481  10.0381  10.4342  10.4342  11.4117  11.4117  11.4473
    12.1752  12.1752  12.7666  12.7666  15.7647  20.2451  20.2451  21.8932
    23.6459  23.6459  23.8655  26.6814

          k =-0.4000 0.4000-0.4000 (  2349 PWs)   bands (ev):

   -89.9131 -50.3085 -50.3079 -50.3079   6.6542   8.6093   8.6093   8.7659
     9.1077   9.1077   9.6930  10.5660  10.5660  11.1500  11.1500  11.3179
    12.2368  12.2368  12.7870  12.7870  14.1624  19.6482  19.6482  21.6831
    23.4717  23.4717  23.8513  28.3511

          k = 0.5000-0.5000 0.5000 (  2362 PWs)   bands (ev):

   -89.9132 -50.3085 -50.3080 -50.3080   6.9990   8.6002   8.6002   8.9659
     9.1811   9.1811   9.3700  10.6406  10.6406  11.0131  11.0131  11.2912
    12.2651  12.2651  12.7963  12.7963  13.5396  19.4334  19.4334  21.6091
    23.4121  23.4121  23.8405  29.0704

          k = 0.0000 0.2000 0.0000 (  2333 PWs)   bands (ev):

   -89.9130 -50.3079 -50.3079 -50.3079   4.8284   8.5229   8.6152   8.7018
     8.7993   8.7993  10.0823  10.2772  10.2772  11.7526  11.7676  12.0719
    12.0876  12.0876  12.6844  12.7998  21.0107  21.0107  21.7135  21.8996
    23.0418  24.2552  24.5830  24.5830

          k =-0.1000 0.3000-0.1000 (  2324 PWs)   bands (ev):

   -89.9129 -50.3079 -50.3078 -50.3078   5.1926   8.5214   8.6311   8.7012
     8.8059   8.8378  10.0499  10.3807  10.4093  11.6737  11.6793  11.8447
    12.0654  12.1194  12.6257  12.8188  18.7282  20.0166  21.1018  22.0209
    22.8785  24.2992  24.8118  24.9703

          k =-0.2000 0.4000-0.2000 (  2340 PWs)   bands (ev):

   -89.9130 -50.3082 -50.3079 -50.3079   5.8158   8.4717   8.6591   8.7040
     8.8385   8.9882  10.0673  10.4314  10.5626  11.4240  11.5153  11.5680
    12.1303  12.1555  12.6192  12.8309  16.4261  19.2503  20.1430  21.6528
    24.0605  24.3509  24.7058  24.9300

          k =-0.3000 0.5000-0.3000 (  2341 PWs)   bands (ev):

   -89.9130 -50.3084 -50.3078 -50.3078   6.5564   8.4373   8.6710   8.7335
     8.9316   9.1601   9.9895  10.4679  10.6927  11.1213  11.2971  11.3937
    12.2052  12.2110  12.6818  12.8288  14.5849  18.8222  19.2116  21.4597
    24.1278  24.4008  24.7355  26.0264

          k = 0.6000-0.4000 0.6000 (  2342 PWs)   bands (ev):

   -89.9130 -50.3085 -50.3079 -50.3079   7.0710   8.4537   8.6412   8.8738
     8.9787   9.2397   9.8120  10.5855  10.6853  10.9976  11.1127  11.3162
    12.2192  12.2781  12.7824  12.7881  13.5676  18.5394  18.8365  21.4257
    24.0274  24.0650  24.8328  27.8591

          k = 0.5000-0.3000 0.5000 (  2344 PWs)   bands (ev):

   -89.9131 -50.3085 -50.3079 -50.3079   6.9486   8.4916   8.6286   8.8177
     9.0243   9.1561   9.8806  10.5311  10.7017  11.0254  11.1529  11.3219
    12.1884  12.2929  12.6984  12.8488  13.8029  18.2616  19.3286  21.5494
    23.7895  23.8621  25.1332  28.2136

          k = 0.4000-0.2000 0.4000 (  2343 PWs)   bands (ev):

   -89.9131 -50.3084 -50.3079 -50.3078   6.3051   8.5227   8.6334   8.7121
     8.9694   9.0012  10.0952  10.3924  10.6393  11.2109  11.3869  11.4063
    12.1520  12.2325  12.6261  12.8592  15.1544  18.4133  20.2346  21.8464
    23.6215  23.7102  25.4226  26.4588

          k = 0.3000-0.1000 0.3000 (  2333 PWs)   bands (ev):

   -89.9130 -50.3081 -50.3079 -50.3078   5.5805   8.5773   8.6302   8.6891
     8.8093   8.9003  10.1882  10.2768  10.5069  11.5000  11.5964  11.6068
    12.1310  12.1370  12.6250  12.8360  17.1776  18.9207  21.4281  22.3389
    23.5125  23.5736  24.9027  25.2011

          k = 0.2000 0.0000 0.2000 (  2327 PWs)   bands (ev):

   -89.9129 -50.3080 -50.3079 -50.3078   5.0361   8.5782   8.6216   8.6876
     8.7715   8.8239  10.1748  10.2057  10.3560  11.6975  11.7185  11.8756
    12.0827  12.1420  12.6796  12.8016  19.4895  19.7485  22.6599  22.8978
    23.1341  23.4521  24.1986  24.3047

          k = 0.0000 0.4000 0.0000 (  2345 PWs)   bands (ev):

   -89.9131 -50.3082 -50.3079 -50.3079   5.4569   8.3873   8.5507   8.8355
     8.8355   8.8746   9.9174  10.5759  10.5759  11.6467  11.6686  11.9794
    11.9794  11.9801  12.4930  12.8380  18.9467  18.9467  19.5922  21.3261
    21.7710  25.5780  25.5780  26.1421

          k =-0.1000 0.5000-0.1000 (  2343 PWs)   bands (ev):

   -89.9131 -50.3084 -50.3079 -50.3078   5.9953   8.2524   8.5340   8.8217
     8.8532   9.0872   9.9008  10.7136  10.7500  11.4565  11.5683  11.7423
    12.0376  12.0960  12.4349  12.8436  17.0052  18.0984  18.6981  21.3328
    22.1616  25.8037  25.9812  26.8458

          k =-0.2000 0.6000-0.2000 (  2337 PWs)   bands (ev):

   -89.9130 -50.3085 -50.3078 -50.3078   6.7010   8.1616   8.5786   8.7831
     8.8782   9.3030   9.9786  10.7486  10.8917  11.0951  11.4091  11.5669
    12.1141  12.1999  12.5487  12.8432  15.0326  17.6148  17.7531  21.2502
    23.6002  25.6421  25.8643  26.9239

          k = 0.7000-0.3000 0.7000 (  2340 PWs)   bands (ev):

   -89.9130 -50.3085 -50.3079 -50.3079   7.2939   8.1688   8.6597   8.7375
     8.9109   9.4238  10.1029  10.7296  10.7474  11.0170  11.2719  11.4375
    12.0927  12.3133  12.7617  12.8208  13.6575  16.9432  17.6308  21.2660
    25.1857  25.4237  25.4642  27.2127

          k = 0.6000-0.2000 0.6000 (  2351 PWs)   bands (ev):

   -89.9131 -50.3085 -50.3080 -50.3080   7.3466   8.2978   8.7011   8.7359
     8.8882   9.3406  10.2567  10.5337  10.7553  11.1384  11.1591  11.3706
    12.0596  12.3258  12.6902  12.8917  13.5441  16.4468  18.1877  21.3978
    24.9083  25.0198  26.6115  28.1454

          k = 0.5000-0.1000 0.5000 (  2339 PWs)   bands (ev):

   -89.9130 -50.3084 -50.3079 -50.3079   6.8636   8.3860   8.6823   8.7017
     8.9307   9.1076  10.3326  10.4142  10.8495  11.0312  11.3376  11.3958
    12.0595  12.3274  12.4888  12.9198  14.6747  16.3937  19.1759  21.6542
    24.6067  24.6317  26.0384  26.8988

          k = 0.4000 0.0000 0.4000 (  2347 PWs)   bands (ev):

   -89.9131 -50.3084 -50.3079 -50.3079   6.1719   8.4662   8.6706   8.6970
     8.8919   8.9459  10.2838  10.3241  10.7114  11.2449  11.4838  11.4983
    12.0977  12.2315  12.4903  12.8912  16.2982  16.9535  20.3953  22.0275
    24.1684  24.2254  24.9771  25.5706

          k = 0.0000 0.6000 0.0000 (  2345 PWs)   bands (ev):

   -89.9131 -50.3085 -50.3078 -50.3078   6.4463   8.0591   8.4282   8.8869
     8.8869   9.2809   9.7827  10.9116  10.9116  11.4237  11.5720  11.9093
    12.0291  12.0291  12.2921  12.8501  17.0117  17.1033  17.1033  21.1092
    21.2941  27.1062  27.1062  28.4771

          k =-0.1000 0.7000-0.1000 (  2347 PWs)   bands (ev):

   -89.9131 -50.3087 -50.3078 -50.3078   7.0872   7.9300   8.3964   8.8841
     8.9033   9.5263   9.7694  10.9781  10.9834  11.1604  11.5188  11.7910
    12.0764  12.2465  12.4362  12.8758  15.3417  16.3780  16.4558  21.1332
    21.8278  27.4281  27.5198  29.2303

          k = 0.8000-0.2000 0.8000 (  2335 PWs)   bands (ev):

   -89.9130 -50.3086 -50.3079 -50.3078   7.6522   7.9483   8.4391   8.8414
     8.8874   9.7212   9.8840  10.6907  11.0262  11.1501  11.4118  11.6827
    11.9730  12.4541  12.7733  12.9658  13.8352  15.5222  16.3611  21.1548
    23.3196  27.0839  27.1363  29.2425

          k = 0.7000-0.1000 0.7000 (  2327 PWs)   bands (ev):

   -89.9129 -50.3085 -50.3079 -50.3078   7.6727   8.2456   8.5473   8.7848
     8.8045   9.6755  10.1542  10.4746  11.0606  11.2184  11.3149  11.5435
    11.9087  12.4029  12.8724  12.9395  13.4747  14.8852  16.9132  21.2525
    25.1888  26.4777  26.5981  28.2177

          k = 0.6000-0.0000 0.6000 (  2325 PWs)   bands (ev):

   -89.9129 -50.3084 -50.3079 -50.3078   7.4025   8.3239   8.6527   8.7315
     8.8103   9.3822  10.4021  10.4446  10.9247  11.1660  11.2764  11.4339
    11.9494  12.2625  12.6296  12.9580  14.2997  14.8952  17.9415  21.4257
    25.6786  25.9618  26.3148  27.7889

          k = 0.0000 0.8000 0.0000 (  2345 PWs)   bands (ev):

   -89.9131 -50.3087 -50.3078 -50.3078   7.6386   7.7911   8.3030   8.9336
     8.9336   9.5528   9.7889  10.9950  11.0284  11.0284  11.5569  11.8527
    12.1797  12.5097  12.5097  12.9455  14.8587  15.5780  15.5780  21.0339
    21.1302  29.0727  29.0727  30.5828

          k = 0.9000-0.1000 0.9000 (  2331 PWs)   bands (ev):

   -89.9129 -50.3086 -50.3078 -50.3077   7.7175   8.1555   8.3719   8.8810
     8.9216   9.4849  10.0452  10.6126  11.0505  11.1299  11.5213  11.8132
    12.0494  12.7725  12.8623  13.1541  13.9513  14.7533  15.2892  21.0826
    21.7117  28.9376  29.2654  30.9104

          k = 0.8000 0.0000 0.8000 (  2330 PWs)   bands (ev):

   -89.9129 -50.3085 -50.3079 -50.3078   7.7303   8.3466   8.4635   8.7385
     8.8636   9.7901  10.0904  10.3350  11.1200  11.2383  11.4325  11.7398
    11.8910  12.7904  12.9763  13.1394  13.6836  13.9847  15.8291  21.1424
    23.2431  27.8509  28.5216  28.9700

          k = 0.0000-1.0000 0.0000 (  2346 PWs)   bands (ev):

   -89.9131 -50.3087 -50.3079 -50.3079   7.6689   8.1707   8.7296   8.9528
     8.9528   9.0288  10.2053  10.5971  11.0274  11.0274  11.5581  11.8320
    12.1483  12.9723  12.9723  13.2493  13.7194  14.7976  14.7976  21.0356
    21.0786  30.5342  30.8618  30.8618

          k =-0.2000 0.4000 0.0000 (  2334 PWs)   bands (ev):

   -89.9130 -50.3082 -50.3078 -50.3078   5.6423   8.4317   8.6116   8.7564
     8.8107   8.9433  10.0244  10.4818  10.5977  11.5121  11.6025  11.6963
    12.0850  12.1145  12.5380  12.8447  17.7231  18.1818  20.3618  22.3099
    22.5010  24.4836  25.1213  26.1483

          k =-0.3000 0.5000-0.1000 (  2338 PWs)   bands (ev):

   -89.9130 -50.3084 -50.3078 -50.3078   6.3103   8.3376   8.6558   8.7427
     8.8450   9.1033  10.0860  10.5432  10.7620  11.2180  11.4558  11.5189
    12.1001  12.2209  12.5100  12.8684  15.7457  17.4449  19.3183  22.0648
    23.5385  24.4466  25.3665  26.7274

          k = 0.6000-0.4000 0.8000 (  2341 PWs)   bands (ev):

   -89.9130 -50.3085 -50.3079 -50.3078   6.9983   8.2932   8.6874   8.7415
     8.9048   9.2574  10.1473  10.5501  10.8224  10.9919  11.2869  11.3977
    12.0966  12.3194  12.6132  12.8742  14.1156  17.1817  18.4104  21.8580
    23.7605  25.3291  25.8669  26.7786

          k = 0.5000-0.3000 0.7000 (  2336 PWs)   bands (ev):

   -89.9130 -50.3084 -50.3079 -50.3078   7.3135   8.2902   8.6782   8.7853
     8.9294   9.3281  10.1558  10.5771  10.6975  11.0446  11.1839  11.3475
    12.0904  12.3727  12.7202  12.8550  13.4239  17.1902  17.9768  21.7894
    23.7302  25.6192  26.1209  28.0171

          k =-0.2000 0.6000 0.0000 (  2345 PWs)   bands (ev):

   -89.9131 -50.3085 -50.3079 -50.3078   6.5842   8.1074   8.5071   8.8277
     8.8772   9.2889   9.9030  10.8360  10.9138  11.2205  11.5112  11.6715
    12.0495  12.1977  12.4129  12.8584  16.0382  16.6422  17.8008  21.8838
    22.0386  25.6320  26.9107  28.2687

          k = 0.7000-0.3000 0.9000 (  2343 PWs)   bands (ev):

   -89.9130 -50.3085 -50.3079 -50.3078   7.2528   8.0329   8.5327   8.7925
     8.9052   9.4828  10.0055  10.8660  10.9033  11.0220  11.4113  11.5783
    11.9824  12.3872  12.5839  12.8992  14.4701  16.0420  16.9789  21.9026
    23.4327  25.1648  27.3337  28.5303

          k = 0.6000-0.2000 0.8000 (  2340 PWs)   bands (ev):

   -89.9130 -50.3085 -50.3080 -50.3079   7.6274   8.0986   8.5887   8.7540
     8.9168   9.5625  10.2046  10.5782  10.9293  11.0783  11.3513  11.4650
    11.9183  12.5099  12.7868  12.9728  13.3691  15.7182  16.7282  21.9862
    24.5933  25.3693  27.1521  27.8262

          k = 0.5000-0.1000 0.7000 (  2334 PWs)   bands (ev):

   -89.9130 -50.3084 -50.3079 -50.3078   7.4806   8.1917   8.6382   8.7509
     8.8757   9.4408  10.3194  10.5410  10.8820  11.0836  11.3518  11.4164
    11.9237  12.4222  12.6512  12.9536  13.8407  15.4352  17.3140  22.2107
    24.2618  25.7568  26.9864  27.3610

          k = 0.4000 0.0000 0.6000 (  2336 PWs)   bands (ev):

   -89.9130 -50.3084 -50.3079 -50.3078   6.9505   8.2348   8.6558   8.7620
     8.8513   9.2445  10.1952  10.6288  10.9140  11.0193  11.4044  11.4464
    12.0051  12.3878  12.4370  12.9184  15.0491  15.7620  18.2790  22.5152
    23.6697  24.6304  26.3190  27.8016

          k = 0.8000-0.2000 1.0000 (  2343 PWs)   bands (ev):

   -89.9130 -50.3086 -50.3079 -50.3079   7.6862   7.8393   8.3685   8.8483
     8.9439   9.7311   9.7758  10.7872  11.0281  11.1416  11.4929  11.7592
    11.9753  12.5451  12.6616  12.9752  14.5165  15.3083  15.7609  21.7323
    21.8272  27.0486  28.8730  30.0648

          k = 0.7000-0.1000 0.9000 (  2332 PWs)   bands (ev):

   -89.9129 -50.3085 -50.3079 -50.3078   7.7930   8.1543   8.4091   8.7714
     8.9468   9.8865   9.9362  10.4822  11.0499  11.2424  11.4358  11.6331
    11.8546  12.6901  12.9511  13.2631  13.5166  14.5952  15.5509  21.8480
    23.3205  26.4135  28.1630  29.1483

          k = 0.6000 0.0000 0.8000 (  2334 PWs)   bands (ev):

   -89.9129 -50.3085 -50.3079 -50.3078   7.7522   8.2189   8.5210   8.7427
     8.8962   9.7392  10.2236  10.4158  11.0833  11.1736  11.4149  11.4893
    11.8216  12.5895  12.8391  13.0313  13.8685  14.1887  16.2522  22.0248
    25.2663  25.6169  26.4824  28.2779

          k =-0.2000-1.0000 0.0000 (  2346 PWs)   bands (ev):

   -89.9131 -50.3086 -50.3079 -50.3079   7.7208   8.2613   8.5226   8.7352
     8.9711   9.5340  10.2769  10.3173  11.0226  11.2290  11.4987  11.7747
    11.9403  12.8474  13.0312  13.4541  13.5493  14.6234  14.7590  21.7097
    21.7631  28.1397  29.2886  30.4351

          k = 0.6000-0.2000 1.0000 (  2320 PWs)   bands (ev):

   -89.9128 -50.3084 -50.3078 -50.3076   7.7512   7.9836   8.5171   8.7604
     8.9533   9.6619  10.1313  10.6244  11.0261  11.0416  11.4204  11.5357
    11.8442  12.5947  12.7639  13.0338  14.0564  14.7487  16.0573  23.3192
    23.4396  24.7532  27.6243  28.4984

          k = 0.5000-0.1000 0.9000 (  2332 PWs)   bands (ev):

   -89.9129 -50.3085 -50.3079 -50.3077   7.8937   8.0303   8.5143   8.7454
     8.9810   9.7584  10.2861  10.4306  11.0412  11.1017  11.4051  11.4812
    11.8103  12.6665  12.9904  13.2361  13.4140  14.5945  15.5380  23.3710
    24.2220  25.5855  25.6302  28.9836

          k =-0.4000-1.0000 0.0000 (  2326 PWs)   bands (ev):

   -89.9129 -50.3085 -50.3079 -50.3077   7.8789   8.1485   8.4377   8.7435
     9.0102   9.9643  10.0914  10.3824  11.0120  11.3425  11.3584  11.4724
    11.8231  12.7374  13.1242  13.2801  13.8192  14.2390  14.7140  23.3355
    23.6051  25.5660  26.3355  29.9885

     the Fermi energy is    12.9438 ev

!    total energy              =   -1389.45037233 Ry

     total all-electron energy =    -43178.950154 Ry
     estimated scf accuracy    <       0.00000004 Ry
     smearing contrib. (-TS)   =      -0.00465926 Ry
     internal energy E=F+TS    =   -1389.44571308 Ry

     The total energy is F=E-TS. E is the sum of the following terms:
     one-electron contribution =    -277.27616002 Ry
     hartree contribution      =     176.71636513 Ry
     xc contribution           =    -102.89069839 Ry
     ewald contribution        =    -320.32140714 Ry
     one-center paw contrib.   =    -865.67381265 Ry

     convergence has been achieved in  13 iterations

     Writing output data file ././cunipt.save/

     init_run     :      3.25s CPU      3.30s WALL (       1 calls)
     electrons    :    100.47s CPU    101.55s WALL (       1 calls)

     Called by init_run:
     wfcinit      :      2.16s CPU      2.17s WALL (       1 calls)
     potinit      :      0.34s CPU      0.35s WALL (       1 calls)
     hinit0       :      0.67s CPU      0.67s WALL (       1 calls)

     Called by electrons:
     c_bands      :     83.28s CPU     83.38s WALL (      13 calls)
     sum_band     :     12.20s CPU     12.74s WALL (      13 calls)
     v_of_rho     :      0.25s CPU      0.26s WALL (      14 calls)
     newd         :      0.70s CPU      1.15s WALL (      14 calls)
     PAW_pot      :      4.38s CPU      4.39s WALL (      14 calls)
     mix_rho      :      0.03s CPU      0.04s WALL (      13 calls)

     Called by c_bands:
     init_us_2    :      0.87s CPU      0.87s WALL (    1269 calls)
     cegterg      :     80.23s CPU     80.32s WALL (     611 calls)

     Called by *egterg:
     cdiaghg      :      1.78s CPU      1.78s WALL (    2494 calls)
     h_psi        :     48.76s CPU     48.84s WALL (    2541 calls)
     s_psi        :      6.76s CPU      6.76s WALL (    2541 calls)
     g_psi        :      0.27s CPU      0.27s WALL (    1883 calls)

     Called by h_psi:
     h_psi:calbec :      6.22s CPU      6.23s WALL (    2541 calls)
     vloc_psi     :     35.57s CPU     35.64s WALL (    2541 calls)
     add_vuspsi   :      6.80s CPU      6.81s WALL (    2541 calls)

     General routines
     calbec       :      8.65s CPU      8.66s WALL (    3152 calls)
     fft          :      0.12s CPU      0.12s WALL (     154 calls)
     ffts         :      0.01s CPU      0.01s WALL (      13 calls)
     fftw         :     38.45s CPU     38.53s WALL (  103360 calls)

     Parallel routines

     PWSCF        :   1m43.95s CPU   1m45.10s WALL


   This run was terminated on:  20:37:26  13Sep2024            

=------------------------------------------------------------------------------=
   JOB DONE.
=------------------------------------------------------------------------------=
