
     Program PWSCF v.6.7MaX starts on 13Sep2024 at 20:33:59 

     This program is part of the open-source Quantum ESPRESSO suite
     for quantum simulation of materials; please cite
         "P. Giannozzi et al., J. Phys.:Condens. Matter 21 395502 (2009);
         "P. Giannozzi et al., J. Phys.:Condens. Matter 29 465901 (2017);
          URL http://www.quantum-espresso.org", 
     in publications or presentations arising from this work. More details at
     http://www.quantum-espresso.org/quote

     Parallel version (MPI), running on     1 processors

     MPI processes distributed on     1 nodes
     Waiting for input...
     Reading input from standard input

     Current dimensions of program PWSCF are:
     Max number of different atomic species (ntypx) = 10
     Max number of k-points (npk) =  40000
     Max angular momentum in pseudopotentials (lmaxx) =  3
     file Cu.upf: wavefunction(s)  4S 3D renormalized
     file Ni.upf: wavefunction(s)  3P 3D renormalized
     file Pt.upf: wavefunction(s)  6S 5D renormalized

     Subspace diagonalization in iterative solution of the eigenvalue problem:
     a serial algorithm will be used


     G-vector sticks info
     --------------------
     sticks:   dense  smooth     PW     G-vecs:    dense   smooth      PW
     Sum         913     913    271                18149    18149    2975



     bravais-lattice index     =            2
     lattice parameter (alat)  =      10.5000  a.u.
     unit-cell volume          =     289.4062 (a.u.)^3
     number of atoms/cell      =            3
     number of atomic types    =            3
     number of electrons       =        39.00
     number of Kohn-Sham states=           28
     kinetic-energy cutoff     =      60.0000  Ry
     charge density cutoff     =     240.0000  Ry
     scf convergence threshold =      1.0E-07
     mixing beta               =       0.7000
     number of iterations used =            8  plain     mixing
     Exchange-correlation= SLA  PW   PBX  PBC
                           (   1   4   3   4   0   0   0)

     celldm(1)=  10.500000  celldm(2)=   0.000000  celldm(3)=   0.000000
     celldm(4)=   0.000000  celldm(5)=   0.000000  celldm(6)=   0.000000

     crystal axes: (cart. coord. in units of alat)
               a(1) = (  -0.500000   0.000000   0.500000 )  
               a(2) = (   0.000000   0.500000   0.500000 )  
               a(3) = (  -0.500000   0.500000   0.000000 )  

     reciprocal axes: (cart. coord. in units 2 pi/alat)
               b(1) = ( -1.000000 -1.000000  1.000000 )  
               b(2) = (  1.000000  1.000000  1.000000 )  
               b(3) = ( -1.000000  1.000000 -1.000000 )  


     PseudoPot. # 1 for Cu read from file:
     ././Cu.upf
     MD5 check sum: cfffd1f38ee05704b3e17f46f1730a6f
     Pseudo is Projector augmented-wave + core cor, Zval = 11.0
     Generated using &quot;atomic&quot; code by A. Dal Corso  v.6.3
     Shape of augmentation charge: PSQ
     Using radial grid of 1199 points,  6 beta functions with: 
                l(1) =   0
                l(2) =   0
                l(3) =   1
                l(4) =   1
                l(5) =   2
                l(6) =   2
     Q(r) pseudized with 0 coefficients 


     PseudoPot. # 2 for Ni read from file:
     ././Ni.upf
     MD5 check sum: 6e86b733589c3ad8389697b807d86aa7
     Pseudo is Projector augmented-wave + core cor, Zval = 18.0
     Generated using &quot;atomic&quot; code by A. Dal Corso  v.6.3
     Shape of augmentation charge: PSQ
     Using radial grid of 1195 points,  6 beta functions with: 
                l(1) =   0
                l(2) =   0
                l(3) =   1
                l(4) =   1
                l(5) =   2
                l(6) =   2
     Q(r) pseudized with 0 coefficients 


     PseudoPot. # 3 for Pt read from file:
     ././Pt.upf
     MD5 check sum: c5224e9cd7a5e36e81f2def9f50bb494
     Pseudo is Projector augmented-wave + core cor, Zval = 10.0
     Generated using &quot;atomic&quot; code by A. Dal Corso  v.6.3
     Shape of augmentation charge: PSQ
     Using radial grid of 1277 points,  6 beta functions with: 
                l(1) =   0
                l(2) =   0
                l(3) =   1
                l(4) =   1
                l(5) =   2
                l(6) =   2
     Q(r) pseudized with 0 coefficients 


     atomic species   valence    mass     pseudopotential
        Cu            11.00    63.54600     Cu( 1.00)
        Ni            18.00    58.69300     Ni( 1.00)
        Pt            10.00   195.08000     Pt( 1.00)

     24 Sym. Ops. (no inversion) found



   Cartesian axes

     site n.     atom                  positions (alat units)
         1           Cu  tau(   1) = (   0.0000000   0.0000000   0.0000000  )
         2           Ni  tau(   2) = (   0.5000000   0.5000000   0.5000000  )
         3           Pt  tau(   3) = (   0.2500000   0.2500000   0.2500000  )

     number of k points=    47  Gaussian smearing, width (Ry)=  0.0100
                       cart. coord. in units 2pi/alat
        k(    1) = (   0.0000000   0.0000000   0.0000000), wk =   0.0020000
        k(    2) = (  -0.1000000   0.1000000  -0.1000000), wk =   0.0160000
        k(    3) = (  -0.2000000   0.2000000  -0.2000000), wk =   0.0160000
        k(    4) = (  -0.3000000   0.3000000  -0.3000000), wk =   0.0160000
        k(    5) = (  -0.4000000   0.4000000  -0.4000000), wk =   0.0160000
        k(    6) = (   0.5000000  -0.5000000   0.5000000), wk =   0.0080000
        k(    7) = (   0.0000000   0.2000000   0.0000000), wk =   0.0120000
        k(    8) = (  -0.1000000   0.3000000  -0.1000000), wk =   0.0480000
        k(    9) = (  -0.2000000   0.4000000  -0.2000000), wk =   0.0480000
        k(   10) = (  -0.3000000   0.5000000  -0.3000000), wk =   0.0480000
        k(   11) = (   0.6000000  -0.4000000   0.6000000), wk =   0.0480000
        k(   12) = (   0.5000000  -0.3000000   0.5000000), wk =   0.0480000
        k(   13) = (   0.4000000  -0.2000000   0.4000000), wk =   0.0480000
        k(   14) = (   0.3000000  -0.1000000   0.3000000), wk =   0.0480000
        k(   15) = (   0.2000000   0.0000000   0.2000000), wk =   0.0240000
        k(   16) = (   0.0000000   0.4000000   0.0000000), wk =   0.0120000
        k(   17) = (  -0.1000000   0.5000000  -0.1000000), wk =   0.0480000
        k(   18) = (  -0.2000000   0.6000000  -0.2000000), wk =   0.0480000
        k(   19) = (   0.7000000  -0.3000000   0.7000000), wk =   0.0480000
        k(   20) = (   0.6000000  -0.2000000   0.6000000), wk =   0.0480000
        k(   21) = (   0.5000000  -0.1000000   0.5000000), wk =   0.0480000
        k(   22) = (   0.4000000   0.0000000   0.4000000), wk =   0.0240000
        k(   23) = (   0.0000000   0.6000000   0.0000000), wk =   0.0120000
        k(   24) = (  -0.1000000   0.7000000  -0.1000000), wk =   0.0480000
        k(   25) = (   0.8000000  -0.2000000   0.8000000), wk =   0.0480000
        k(   26) = (   0.7000000  -0.1000000   0.7000000), wk =   0.0480000
        k(   27) = (   0.6000000  -0.0000000   0.6000000), wk =   0.0240000
        k(   28) = (   0.0000000   0.8000000   0.0000000), wk =   0.0120000
        k(   29) = (   0.9000000  -0.1000000   0.9000000), wk =   0.0480000
        k(   30) = (   0.8000000   0.0000000   0.8000000), wk =   0.0240000
        k(   31) = (   0.0000000  -1.0000000   0.0000000), wk =   0.0060000
        k(   32) = (  -0.2000000   0.4000000   0.0000000), wk =   0.0480000
        k(   33) = (  -0.3000000   0.5000000  -0.1000000), wk =   0.0960000
        k(   34) = (   0.6000000  -0.4000000   0.8000000), wk =   0.0960000
        k(   35) = (   0.5000000  -0.3000000   0.7000000), wk =   0.0480000
        k(   36) = (  -0.2000000   0.6000000   0.0000000), wk =   0.0480000
        k(   37) = (   0.7000000  -0.3000000   0.9000000), wk =   0.0960000
        k(   38) = (   0.6000000  -0.2000000   0.8000000), wk =   0.0960000
        k(   39) = (   0.5000000  -0.1000000   0.7000000), wk =   0.0960000
        k(   40) = (   0.4000000   0.0000000   0.6000000), wk =   0.0480000
        k(   41) = (   0.8000000  -0.2000000   1.0000000), wk =   0.0480000
        k(   42) = (   0.7000000  -0.1000000   0.9000000), wk =   0.0960000
        k(   43) = (   0.6000000   0.0000000   0.8000000), wk =   0.0480000
        k(   44) = (  -0.2000000  -1.0000000   0.0000000), wk =   0.0240000
        k(   45) = (   0.6000000  -0.2000000   1.0000000), wk =   0.0480000
        k(   46) = (   0.5000000  -0.1000000   0.9000000), wk =   0.0480000
        k(   47) = (  -0.4000000  -1.0000000   0.0000000), wk =   0.0240000

     Dense  grid:    18149 G-vectors     FFT dimensions: (  40,  40,  40)

     Estimated max dynamical RAM per process >     117.01 MB

     Check: negative core charge=   -0.000002

     Initial potential from superposition of free atoms

     starting charge   38.99935, renormalised to   39.00000
     Starting wfcs are   28 randomized atomic wfcs
     Checking if some PAW data can be deallocated... 

     total cpu time spent up to now is        3.5 secs

     Self-consistent Calculation

     iteration #  1     ecut=    60.00 Ry     beta= 0.70
     Davidson diagonalization with overlap
     ethr =  1.00E-02,  avg # of iterations =  6.0

     total cpu time spent up to now is       12.7 secs

     total energy              =   -1388.04109568 Ry
     estimated scf accuracy    <       1.80050505 Ry

     iteration #  2     ecut=    60.00 Ry     beta= 0.70
     Davidson diagonalization with overlap
     ethr =  4.62E-03,  avg # of iterations =  3.2

     total cpu time spent up to now is       22.4 secs

     total energy              =   -1385.90039150 Ry
     estimated scf accuracy    <      49.26078223 Ry

     iteration #  3     ecut=    60.00 Ry     beta= 0.70
     Davidson diagonalization with overlap
     ethr =  4.62E-03,  avg # of iterations =  4.0

     total cpu time spent up to now is       31.2 secs

     total energy              =   -1389.38371171 Ry
     estimated scf accuracy    <       0.61160463 Ry

     iteration #  4     ecut=    60.00 Ry     beta= 0.70
     Davidson diagonalization with overlap
     ethr =  1.57E-03,  avg # of iterations =  2.0

     total cpu time spent up to now is       37.9 secs

     total energy              =   -1389.43400783 Ry
     estimated scf accuracy    <       0.08488176 Ry

     iteration #  5     ecut=    60.00 Ry     beta= 0.70
     Davidson diagonalization with overlap
     ethr =  2.18E-04,  avg # of iterations =  1.7

     total cpu time spent up to now is       44.4 secs

     total energy              =   -1389.43376772 Ry
     estimated scf accuracy    <       0.02807835 Ry

     iteration #  6     ecut=    60.00 Ry     beta= 0.70
     Davidson diagonalization with overlap
     ethr =  7.20E-05,  avg # of iterations =  2.9

     total cpu time spent up to now is       51.7 secs

     total energy              =   -1389.43822903 Ry
     estimated scf accuracy    <       0.02096368 Ry

     iteration #  7     ecut=    60.00 Ry     beta= 0.70
     Davidson diagonalization with overlap
     ethr =  5.38E-05,  avg # of iterations =  1.2

     total cpu time spent up to now is       57.9 secs

     total energy              =   -1389.44061103 Ry
     estimated scf accuracy    <       0.00239225 Ry

     iteration #  8     ecut=    60.00 Ry     beta= 0.70
     Davidson diagonalization with overlap
     ethr =  6.13E-06,  avg # of iterations =  5.0

     total cpu time spent up to now is       65.1 secs

     total energy              =   -1389.44095052 Ry
     estimated scf accuracy    <       0.00017381 Ry

     iteration #  9     ecut=    60.00 Ry     beta= 0.70
     Davidson diagonalization with overlap
     ethr =  4.46E-07,  avg # of iterations =  4.3

     total cpu time spent up to now is       74.2 secs

     total energy              =   -1389.44102538 Ry
     estimated scf accuracy    <       0.00002005 Ry

     iteration # 10     ecut=    60.00 Ry     beta= 0.70
     Davidson diagonalization with overlap
     ethr =  5.14E-08,  avg # of iterations =  2.2

     total cpu time spent up to now is       81.0 secs

     total energy              =   -1389.44102635 Ry
     estimated scf accuracy    <       0.00000463 Ry

     iteration # 11     ecut=    60.00 Ry     beta= 0.70
     Davidson diagonalization with overlap
     ethr =  1.19E-08,  avg # of iterations =  2.2

     total cpu time spent up to now is       87.7 secs

     total energy              =   -1389.44102642 Ry
     estimated scf accuracy    <       0.00000152 Ry

     iteration # 12     ecut=    60.00 Ry     beta= 0.70
     Davidson diagonalization with overlap
     ethr =  3.90E-09,  avg # of iterations =  2.4

     total cpu time spent up to now is       94.8 secs

     total energy              =   -1389.44102646 Ry
     estimated scf accuracy    <       0.00000038 Ry

     iteration # 13     ecut=    60.00 Ry     beta= 0.70
     Davidson diagonalization with overlap
     ethr =  9.84E-10,  avg # of iterations =  2.7

     total cpu time spent up to now is      102.4 secs

     End of self-consistent calculation

          k = 0.0000 0.0000 0.0000 (  2229 PWs)   bands (ev):

   -89.4162 -49.8131 -49.8131 -49.8131   4.9439   8.8857   8.8857   9.1755
     9.1755   9.1755  10.6019  10.6019  10.6019  12.3031  12.3031  12.6531
    12.6531  12.6531  13.3023  13.3023  23.0478  23.9372  23.9373  23.9373
    23.9750  23.9750  23.9750  24.7282

          k =-0.1000 0.1000-0.1000 (  2244 PWs)   bands (ev):

   -89.4163 -49.8131 -49.8131 -49.8131   5.1079   8.9200   8.9200   9.1367
     9.1737   9.1737  10.6206  10.6402  10.6402  12.2722  12.2722  12.5225
    12.6428  12.6428  13.2956  13.2956  21.1851  22.8638  22.8638  23.1434
    24.4303  24.8005  24.8005  25.2564

          k =-0.2000 0.2000-0.2000 (  2253 PWs)   bands (ev):

   -89.4164 -49.8134 -49.8131 -49.8131   5.5805   8.9875   8.9875   9.0649
     9.2011   9.2011  10.6188  10.7437  10.7437  12.1418  12.1418  12.2139
    12.6450  12.6450  13.2928  13.2928  18.6203  21.8260  21.8260  22.8917
    24.6053  24.6138  24.6138  26.0329

          k =-0.3000 0.3000-0.3000 (  2253 PWs)   bands (ev):

   -89.4164 -49.8135 -49.8130 -49.8130   6.2871   9.0018   9.0018   9.0460
     9.3296   9.3296  10.4667  10.8817  10.8817  11.8962  11.8962  11.9279
    12.6934  12.6934  13.3088  13.3088  16.3923  20.9345  20.9345  22.5605
    24.3696  24.3696  24.7191  27.5006

          k =-0.4000 0.4000-0.4000 (  2277 PWs)   bands (ev):

   -89.4166 -49.8137 -49.8131 -49.8131   7.0272   8.9840   8.9840   9.1603
     9.4940   9.4940  10.1075  11.0177  11.0177  11.6236  11.6236  11.7995
    12.7567  12.7567  13.3313  13.3313  14.7530  20.3186  20.3186  22.3308
    24.2070  24.2070  24.7378  29.1172

          k = 0.5000-0.5000 0.5000 (  2276 PWs)   bands (ev):

   -89.4166 -49.8138 -49.8131 -49.8131   7.3769   8.9748   8.9748   9.3678
     9.5703   9.5703   9.7755  11.0932  11.0932  11.4827  11.4827  11.7760
    12.7855  12.7855  13.3418  13.3418  14.1133  20.0967  20.0967  22.2517
    24.1513  24.1513  24.7364  29.8347

          k = 0.0000 0.2000 0.0000 (  2265 PWs)   bands (ev):

   -89.4165 -49.8134 -49.8132 -49.8132   5.1631   8.8837   8.9782   9.0861
     9.1877   9.1877  10.5138  10.7172  10.7172  12.2553  12.2767  12.5852
    12.5937  12.5937  13.2229  13.3442  21.7207  21.7207  22.5089  22.6413
    23.7060  25.0448  25.2463  25.2463

          k =-0.1000 0.3000-0.1000 (  2255 PWs)   bands (ev):

   -89.4164 -49.8134 -49.8132 -49.8131   5.5361   8.8895   9.0065   9.0717
     9.1931   9.2227  10.4810  10.8257  10.8558  12.1742  12.1756  12.3429
    12.5726  12.6357  13.1604  13.3634  19.4088  20.7034  21.8553  22.7256
    23.5934  25.0332  25.4992  25.7278

          k =-0.2000 0.4000-0.2000 (  2271 PWs)   bands (ev):

   -89.4165 -49.8136 -49.8132 -49.8131   6.1733   8.8483   9.0299   9.0817
     9.2229   9.3711  10.5001  10.8779  11.0159  11.9108  11.9986  12.0566
    12.6431  12.6756  13.1535  13.3757  17.0637  19.9162  20.8564  22.3335
    24.7919  25.1138  25.4275  25.7426

          k =-0.3000 0.5000-0.3000 (  2262 PWs)   bands (ev):

   -89.4164 -49.8136 -49.8131 -49.8130   6.9283   8.8136   9.0485   9.1119
     9.3164   9.5484  10.4178  10.9154  11.1500  11.5943  11.7736  11.8774
    12.7218  12.7323  13.2201  13.3738  15.1832  19.4739  19.8927  22.1331
    24.8598  25.1422  25.5984  26.8006

          k = 0.6000-0.4000 0.6000 (  2283 PWs)   bands (ev):

   -89.4166 -49.8139 -49.8132 -49.8131   7.4497   8.8285   9.0177   9.2552
     9.3729   9.6308  10.2329  11.0373  11.1400  11.4660  11.5841  11.8012
    12.7375  12.8001  13.3264  13.3315  14.1408  19.1999  19.4860  22.0913
    24.7998  24.8119  25.6747  28.6508

          k = 0.5000-0.3000 0.5000 (  2273 PWs)   bands (ev):

   -89.4165 -49.8137 -49.8131 -49.8131   7.3257   8.8682   9.0047   9.2059
     9.4110   9.5431  10.3038  10.9820  11.1572  11.4953  11.6249  11.8054
    12.7077  12.8137  13.2378  13.3956  14.3824  18.9159  19.9906  22.2087
    24.5329  24.6649  25.9487  29.0287

          k = 0.4000-0.2000 0.4000 (  2267 PWs)   bands (ev):

   -89.4165 -49.8136 -49.8131 -49.8130   6.6722   8.9030   9.0094   9.0931
     9.3493   9.3847  10.5274  10.8390  11.0936  11.6875  11.8676  11.8875
    12.6722  12.7498  13.1618  13.4055  15.7659  19.0758  20.9218  22.5015
    24.3571  24.5190  26.2078  27.2760

          k = 0.3000-0.1000 0.3000 (  2260 PWs)   bands (ev):

   -89.4164 -49.8134 -49.8132 -49.8131   5.9328   8.9589   9.0018   9.0639
     9.1882   9.2835  10.6256  10.7181  10.9566  11.9907  12.0874  12.0926
    12.6429  12.6573  13.1602  13.3807  17.8301  19.6017  22.1489  22.9951
    24.3022  24.3051  25.6949  25.9243

          k = 0.2000 0.0000 0.2000 (  2265 PWs)   bands (ev):

   -89.4165 -49.8134 -49.8132 -49.8132   5.3758   8.9416   8.9894   9.0705
     9.1565   9.2108  10.6109  10.6430  10.7994  12.1993  12.2186  12.3745
    12.5901  12.6592  13.2177  13.3452  20.1776  20.4593  23.4176  23.6283
    23.8346  24.2057  24.8678  25.1007

          k = 0.0000 0.4000 0.0000 (  2269 PWs)   bands (ev):

   -89.4165 -49.8135 -49.8132 -49.8132   5.8069   8.7591   8.9135   9.2238
     9.2238   9.2480  10.3439  11.0305  11.0305  12.1377  12.1740  12.4770
    12.4770  12.4986  13.0201  13.3838  19.6068  19.6068  20.3120  22.1011
    22.4313  26.2687  26.2687  26.9631

          k =-0.1000 0.5000-0.1000 (  2273 PWs)   bands (ev):

   -89.4166 -49.8137 -49.8131 -49.8131   6.3573   8.6231   8.8928   9.2071
     9.2416   9.4708  10.3285  11.1744  11.2128  11.9473  12.0547  12.2374
    12.5409  12.6120  12.9585  13.3891  17.6426  18.7353  19.3792  22.0538
    22.8872  26.5217  26.7020  27.6917

          k =-0.2000 0.6000-0.2000 (  2271 PWs)   bands (ev):

   -89.4165 -49.8137 -49.8131 -49.8130   7.0765   8.5302   8.9384   9.1662
     9.2693   9.6958  10.4112  11.2082  11.3597  11.5665  11.8876  12.0578
    12.6238  12.7198  13.0784  13.3877  15.6318  18.2357  18.4103  21.9617
    24.3459  26.3924  26.6161  27.7797

          k = 0.7000-0.3000 0.7000 (  2283 PWs)   bands (ev):

   -89.4166 -49.8138 -49.8132 -49.8131   7.6757   8.5380   9.0215   9.1184
     9.3106   9.8216  10.5403  11.1842  11.2044  11.4865  11.7472  11.9272
    12.6042  12.8357  13.3032  13.3624  14.2280  17.5802  18.2490  21.9708
    25.9432  26.2087  26.2263  28.0603

          k = 0.6000-0.2000 0.6000 (  2288 PWs)   bands (ev):

   -89.4167 -49.8138 -49.8132 -49.8132   7.7256   8.6719   9.0808   9.1048
     9.2865   9.7336  10.6975  10.9853  11.2122  11.6109  11.6297  11.8561
    12.5734  12.8481  13.2248  13.4401  14.1134  17.0728  18.8202  22.0943
    25.6995  25.7795  27.3870  28.9761

          k = 0.5000-0.1000 0.5000 (  2275 PWs)   bands (ev):

   -89.4166 -49.8137 -49.8131 -49.8131   7.2388   8.7645   9.0620   9.0807
     9.3129   9.4902  10.7772  10.8628  11.3113  11.4992  11.8131  11.8777
    12.5771  12.8481  13.0162  13.4690  15.2687  17.0233  19.8357  22.3395
    25.3866  25.3957  26.8208  27.6563

          k = 0.4000 0.0000 0.4000 (  2269 PWs)   bands (ev):

   -89.4165 -49.8136 -49.8132 -49.8131   6.5365   8.8469   9.0495   9.0733
     9.2670   9.3280  10.7273  10.7684  11.1676  11.7233  11.9659  11.9815
    12.6185  12.7460  13.0197  13.4384  16.9220  17.6044  21.0876  22.6959
    24.9432  24.9815  25.7788  26.2940

          k = 0.0000 0.6000 0.0000 (  2273 PWs)   bands (ev):

   -89.4165 -49.8138 -49.8131 -49.8131   6.8186   8.4238   8.7813   9.2759
     9.2759   9.6710  10.2081  11.3823  11.3823  11.9170  12.0595  12.4273
    12.5244  12.5244  12.8084  13.3962  17.6690  17.7125  17.7125  21.8297
    22.0328  27.8390  27.8390  29.3362

          k =-0.1000 0.7000-0.1000 (  2274 PWs)   bands (ev):

   -89.4165 -49.8139 -49.8130 -49.8130   7.4713   8.2911   8.7480   9.2721
     9.2943   9.9272  10.1970  11.4487  11.4555  11.6397  12.0046  12.2979
    12.5798  12.7578  12.9573  13.4222  15.9392  16.9948  17.0436  21.8602
    22.5693  28.1940  28.2853  30.1027

          k = 0.8000-0.2000 0.8000 (  2278 PWs)   bands (ev):

   -89.4166 -49.8139 -49.8131 -49.8131   8.0329   8.3172   8.7921   9.2271
     9.2873  10.1311  10.3164  11.1439  11.4964  11.6283  11.8937  12.1860
    12.4754  12.9742  13.3140  13.5121  14.3971  16.1273  16.9415  21.8842
    24.0696  27.8750  27.9158  30.0878

          k = 0.7000-0.1000 0.7000 (  2283 PWs)   bands (ev):

   -89.4166 -49.8139 -49.8132 -49.8132   8.0417   8.6246   8.9028   9.1680
     9.2134  10.0822  10.5952  10.9215  11.5285  11.6937  11.7956  12.0387
    12.4133  12.9193  13.4087  13.4903  14.0389  15.4802  17.5084  21.9758
    25.9567  27.2523  27.3924  29.0265

          k = 0.6000-0.0000 0.6000 (  2285 PWs)   bands (ev):

   -89.4166 -49.8138 -49.8133 -49.8132   7.7777   8.7022   9.0246   9.1131
     9.2009   9.7753  10.8508  10.8942  11.3917  11.6368  11.7488  11.9189
    12.4608  12.7800  13.1600  13.5096  14.8759  15.4992  18.5671  22.1356
    26.4445  26.7421  27.1107  28.3779

          k = 0.0000 0.8000 0.0000 (  2269 PWs)   bands (ev):

   -89.4165 -49.8139 -49.8129 -49.8129   8.0252   8.1526   8.6547   9.3239
     9.3239   9.9778  10.2004  11.4661  11.5012  11.5012  12.0468  12.3674
    12.6919  13.0296  13.0296  13.4952  15.4656  16.1359  16.1359  21.7216
    21.9202  29.8627  29.8627  31.3616

          k = 0.9000-0.1000 0.9000 (  2269 PWs)   bands (ev):

   -89.4165 -49.8140 -49.8130 -49.8130   8.0717   8.5169   8.7582   9.2806
     9.3109   9.9073  10.4683  11.0632  11.5224  11.6078  12.0107  12.3256
    12.5542  13.3103  13.4071  13.7101  14.5213  15.3031  15.8308  21.8157
    22.4610  29.7364  30.0886  31.7685

          k = 0.8000 0.0000 0.8000 (  2277 PWs)   bands (ev):

   -89.4165 -49.8139 -49.8131 -49.8131   8.0874   8.6941   8.8463   9.1595
     9.2501  10.2197  10.5160  10.7724  11.5927  11.7198  11.9184  12.2495
    12.3896  13.3301  13.5296  13.6689  14.2541  14.5433  16.3880  21.8783
    23.9959  28.6387  29.3421  29.7906

          k = 0.0000-1.0000 0.0000 (  2272 PWs)   bands (ev):

   -89.4165 -49.8140 -49.8130 -49.8130   8.0211   8.5113   9.1520   9.3436
     9.3436   9.4438  10.6333  11.0506  11.4983  11.4983  12.0500  12.3447
    12.6597  13.5258  13.5258  13.8079  14.2986  15.3151  15.3151  21.7073
    21.8916  31.3036  31.7379  31.7379

          k =-0.2000 0.4000 0.0000 (  2259 PWs)   bands (ev):

   -89.4164 -49.8134 -49.8131 -49.8131   5.9962   8.8070   8.9767   9.1363
     9.1962   9.3250  10.4558  10.9324  11.0519  12.0044  12.0910  12.1883
    12.5938  12.6325  13.0683  13.3899  18.3759  18.8501  21.0617  23.0385
    23.2107  25.2120  25.8664  26.9312

          k =-0.3000 0.5000-0.1000 (  2282 PWs)   bands (ev):

   -89.4166 -49.8137 -49.8132 -49.8131   6.6779   8.7121   9.0234   9.1243
     9.2299   9.4884  10.5214  10.9956  11.2222  11.6952  11.9366  12.0045
    12.6181  12.7364  13.0395  13.4145  16.3631  18.0905  19.9916  22.7561
    24.2880  25.2113  26.1205  27.5316

          k = 0.6000-0.4000 0.8000 (  2272 PWs)   bands (ev):

   -89.4165 -49.8137 -49.8132 -49.8130   7.3764   8.6664   9.0630   9.1172
     9.2954   9.6482  10.5848  11.0003  11.2835  11.4593  11.7620  11.8827
    12.6122  12.8415  13.1470  13.4208  14.6987  17.8186  19.0582  22.5392
    24.5425  26.0936  26.6240  27.6208

          k = 0.5000-0.3000 0.7000 (  2272 PWs)   bands (ev):

   -89.4165 -49.8138 -49.8131 -49.8131   7.6940   8.6619   9.0565   9.1549
     9.3302   9.7220  10.5915  11.0287  11.1533  11.5117  11.6584  11.8333
    12.6049  12.8975  13.2580  13.4009  13.9912  17.8302  18.6082  22.4673
    24.5215  26.3652  26.9340  28.8610

          k =-0.2000 0.6000 0.0000 (  2275 PWs)   bands (ev):

   -89.4166 -49.8138 -49.8131 -49.8130   6.9583   8.4741   8.8636   9.2149
     9.2657   9.6803  10.3329  11.3027  11.3829  11.6989  11.9955  12.1638
    12.5613  12.7077  12.9370  13.4038  16.6521  17.2613  18.4446  22.6079
    22.7714  26.3917  27.6468  29.1332

          k = 0.7000-0.3000 0.9000 (  2273 PWs)   bands (ev):

   -89.4165 -49.8138 -49.8131 -49.8130   7.6359   8.3979   8.8894   9.1815
     9.2965   9.8827  10.4407  11.3287  11.3695  11.4921  11.8920  12.0695
    12.4912  12.9081  13.1156  13.4452  15.0505  16.6517  17.5969  22.6252
    24.1766  25.9463  28.0877  29.3778

          k = 0.6000-0.2000 0.8000 (  2271 PWs)   bands (ev):

   -89.4165 -49.8138 -49.8132 -49.8130   8.0066   8.4673   8.9465   9.1463
     9.3141   9.9658  10.6471  11.0298  11.3912  11.5468  11.8334  11.9532
    12.4270  13.0365  13.3253  13.5184  13.9304  16.3294  17.3296  22.7018
    25.3713  26.1425  27.9207  28.6200

          k = 0.5000-0.1000 0.7000 (  2278 PWs)   bands (ev):

   -89.4166 -49.8138 -49.8132 -49.8131   7.8586   8.5630   9.0023   9.1421
     9.2672   9.8381  10.7659  10.9925  11.3445  11.5508  11.8316  11.9003
    12.4342  12.9473  13.1822  13.5038  14.4111  16.0411  17.9333  22.9157
    25.0465  26.5321  27.7551  28.1450

          k = 0.4000 0.0000 0.6000 (  2263 PWs)   bands (ev):

   -89.4164 -49.8137 -49.8131 -49.8130   7.3277   8.6073   9.0236   9.1488
     9.2352   9.6337  10.6367  11.0849  11.3812  11.4853  11.8832  11.9285
    12.5196  12.9100  12.9624  13.4667  15.6423  16.3811  18.9255  23.1999
    24.4477  25.4056  27.0795  28.5879

          k = 0.8000-0.2000 1.0000 (  2274 PWs)   bands (ev):

   -89.4165 -49.8139 -49.8130 -49.8130   8.0730   8.2012   8.7199   9.2422
     9.3345  10.1545  10.1925  11.2456  11.4990  11.6216  11.9795  12.2636
    12.4794  13.0688  13.1955  13.5243  15.0967  15.8794  16.3435  22.4613
    22.5748  27.8404  29.6529  30.8795

          k = 0.7000-0.1000 0.9000 (  2273 PWs)   bands (ev):

   -89.4165 -49.8139 -49.8131 -49.8130   8.1528   8.5358   8.7605   9.1802
     9.3385  10.3142  10.3605  10.9270  11.5186  11.7230  11.9223  12.1249
    12.3630  13.2243  13.5011  13.8217  14.0601  15.1729  16.1161  22.5869
    24.0693  27.2073  28.9608  29.9546

          k = 0.6000 0.0000 0.8000 (  2269 PWs)   bands (ev):

   -89.4165 -49.8139 -49.8132 -49.8130   8.1185   8.5927   8.8746   9.1567
     9.2844  10.1493  10.6675  10.8615  11.5513  11.6443  11.9016  11.9757
    12.3312  13.1167  13.3733  13.5850  14.4296  14.7725  16.8395  22.7545
    26.0357  26.4055  27.2628  29.0708

          k =-0.2000-1.0000 0.0000 (  2264 PWs)   bands (ev):

   -89.4164 -49.8139 -49.8130 -49.8129   8.0750   8.6047   8.9076   9.1576
     9.3626   9.9558  10.7100  10.7548  11.4917  11.7119  11.9876  12.2810
    12.4435  13.3933  13.5881  14.0194  14.1147  15.1605  15.2896  22.4453
    22.5129  28.9459  30.1095  31.2872

          k = 0.6000-0.2000 1.0000 (  2266 PWs)   bands (ev):

   -89.4164 -49.8138 -49.8132 -49.8130   8.1315   8.3478   8.8716   9.1639
     9.3434  10.0694  10.5720  11.0785  11.4932  11.5084  11.9048  12.0224
    12.3548  13.1255  13.3007  13.5853  14.6197  15.3335  16.6526  24.0248
    24.2125  25.5455  28.4118  29.2779

          k = 0.5000-0.1000 0.9000 (  2260 PWs)   bands (ev):

   -89.4164 -49.8138 -49.8131 -49.8130   8.2648   8.3960   8.8677   9.1590
     9.3728  10.1706  10.7330  10.8779  11.5066  11.5647  11.8877  11.9710
    12.3236  13.2009  13.5401  13.7917  13.9593  15.1788  16.1142  24.0942
    25.0154  26.3474  26.4150  29.7768

          k =-0.4000-1.0000 0.0000 (  2262 PWs)   bands (ev):

   -89.4164 -49.8138 -49.8131 -49.8130   8.2394   8.5194   8.7872   9.1654
     9.4026  10.3852  10.5315  10.8258  11.4766  11.8101  11.8422  11.9658
    12.3382  13.2761  13.6855  13.8312  14.3887  14.8012  15.2576  24.1280
    24.3106  26.3609  27.1151  30.8199

     the Fermi energy is    13.4904 ev

!    total energy              =   -1389.44102651 Ry

     total all-electron energy =    -43178.940808 Ry
     estimated scf accuracy    <       0.00000002 Ry
     smearing contrib. (-TS)   =      -0.00455073 Ry
     internal energy E=F+TS    =   -1389.43647578 Ry

     The total energy is F=E-TS. E is the sum of the following terms:
     one-electron contribution =    -272.41741221 Ry
     hartree contribution      =     174.99222337 Ry
     xc contribution           =    -102.95274792 Ry
     ewald contribution        =    -323.37208721 Ry
     one-center paw contrib.   =    -865.68645182 Ry

     convergence has been achieved in  13 iterations

     Writing output data file ././cunipt.save/

     init_run     :      3.25s CPU      3.33s WALL (       1 calls)
     electrons    :     97.74s CPU     98.84s WALL (       1 calls)

     Called by init_run:
     wfcinit      :      2.13s CPU      2.15s WALL (       1 calls)
     potinit      :      0.35s CPU      0.36s WALL (       1 calls)
     hinit0       :      0.70s CPU      0.70s WALL (       1 calls)

     Called by electrons:
     c_bands      :     80.73s CPU     80.87s WALL (      13 calls)
     sum_band     :     12.04s CPU     12.57s WALL (      13 calls)
     v_of_rho     :      0.26s CPU      0.26s WALL (      14 calls)
     newd         :      0.64s CPU      1.12s WALL (      14 calls)
     PAW_pot      :      4.40s CPU      4.42s WALL (      14 calls)
     mix_rho      :      0.04s CPU      0.04s WALL (      13 calls)

     Called by c_bands:
     init_us_2    :      0.84s CPU      0.85s WALL (    1269 calls)
     cegterg      :     77.77s CPU     77.90s WALL (     611 calls)

     Called by *egterg:
     cdiaghg      :      1.74s CPU      1.74s WALL (    2484 calls)
     h_psi        :     47.36s CPU     47.46s WALL (    2531 calls)
     s_psi        :      6.52s CPU      6.53s WALL (    2531 calls)
     g_psi        :      0.25s CPU      0.25s WALL (    1873 calls)

     Called by h_psi:
     h_psi:calbec :      6.01s CPU      6.01s WALL (    2531 calls)
     vloc_psi     :     34.64s CPU     34.73s WALL (    2531 calls)
     add_vuspsi   :      6.56s CPU      6.56s WALL (    2531 calls)

     General routines
     calbec       :      8.35s CPU      8.36s WALL (    3142 calls)
     fft          :      0.12s CPU      0.12s WALL (     154 calls)
     ffts         :      0.01s CPU      0.01s WALL (      13 calls)
     fftw         :     37.55s CPU     37.65s WALL (  102366 calls)

     Parallel routines

     PWSCF        :   1m41.22s CPU   1m42.43s WALL


   This run was terminated on:  20:35:41  13Sep2024            

=------------------------------------------------------------------------------=
   JOB DONE.
=------------------------------------------------------------------------------=
