
     Program PWSCF v.6.7MaX starts on 13Sep2024 at 20:29:29 

     This program is part of the open-source Quantum ESPRESSO suite
     for quantum simulation of materials; please cite
         "P. Giannozzi et al., J. Phys.:Condens. Matter 21 395502 (2009);
         "P. Giannozzi et al., J. Phys.:Condens. Matter 29 465901 (2017);
          URL http://www.quantum-espresso.org", 
     in publications or presentations arising from this work. More details at
     http://www.quantum-espresso.org/quote

     Parallel version (MPI), running on     1 processors

     MPI processes distributed on     1 nodes
     Waiting for input...
     Reading input from standard input

     Current dimensions of program PWSCF are:
     Max number of different atomic species (ntypx) = 10
     Max number of k-points (npk) =  40000
     Max angular momentum in pseudopotentials (lmaxx) =  3
     file Cu.upf: wavefunction(s)  4S 3D renormalized
     file Ni.upf: wavefunction(s)  3P 3D renormalized
     file Pt.upf: wavefunction(s)  6S 5D renormalized

     Subspace diagonalization in iterative solution of the eigenvalue problem:
     a serial algorithm will be used


     G-vector sticks info
     --------------------
     sticks:   dense  smooth     PW     G-vecs:    dense   smooth      PW
     Sum         859     859    253                16625    16625    2741



     bravais-lattice index     =            2
     lattice parameter (alat)  =      10.2000  a.u.
     unit-cell volume          =     265.3020 (a.u.)^3
     number of atoms/cell      =            3
     number of atomic types    =            3
     number of electrons       =        39.00
     number of Kohn-Sham states=           28
     kinetic-energy cutoff     =      60.0000  Ry
     charge density cutoff     =     240.0000  Ry
     scf convergence threshold =      1.0E-07
     mixing beta               =       0.7000
     number of iterations used =            8  plain     mixing
     Exchange-correlation= SLA  PW   PBX  PBC
                           (   1   4   3   4   0   0   0)

     celldm(1)=  10.200000  celldm(2)=   0.000000  celldm(3)=   0.000000
     celldm(4)=   0.000000  celldm(5)=   0.000000  celldm(6)=   0.000000

     crystal axes: (cart. coord. in units of alat)
               a(1) = (  -0.500000   0.000000   0.500000 )  
               a(2) = (   0.000000   0.500000   0.500000 )  
               a(3) = (  -0.500000   0.500000   0.000000 )  

     reciprocal axes: (cart. coord. in units 2 pi/alat)
               b(1) = ( -1.000000 -1.000000  1.000000 )  
               b(2) = (  1.000000  1.000000  1.000000 )  
               b(3) = ( -1.000000  1.000000 -1.000000 )  


     PseudoPot. # 1 for Cu read from file:
     ././Cu.upf
     MD5 check sum: cfffd1f38ee05704b3e17f46f1730a6f
     Pseudo is Projector augmented-wave + core cor, Zval = 11.0
     Generated using &quot;atomic&quot; code by A. Dal Corso  v.6.3
     Shape of augmentation charge: PSQ
     Using radial grid of 1199 points,  6 beta functions with: 
                l(1) =   0
                l(2) =   0
                l(3) =   1
                l(4) =   1
                l(5) =   2
                l(6) =   2
     Q(r) pseudized with 0 coefficients 


     PseudoPot. # 2 for Ni read from file:
     ././Ni.upf
     MD5 check sum: 6e86b733589c3ad8389697b807d86aa7
     Pseudo is Projector augmented-wave + core cor, Zval = 18.0
     Generated using &quot;atomic&quot; code by A. Dal Corso  v.6.3
     Shape of augmentation charge: PSQ
     Using radial grid of 1195 points,  6 beta functions with: 
                l(1) =   0
                l(2) =   0
                l(3) =   1
                l(4) =   1
                l(5) =   2
                l(6) =   2
     Q(r) pseudized with 0 coefficients 


     PseudoPot. # 3 for Pt read from file:
     ././Pt.upf
     MD5 check sum: c5224e9cd7a5e36e81f2def9f50bb494
     Pseudo is Projector augmented-wave + core cor, Zval = 10.0
     Generated using &quot;atomic&quot; code by A. Dal Corso  v.6.3
     Shape of augmentation charge: PSQ
     Using radial grid of 1277 points,  6 beta functions with: 
                l(1) =   0
                l(2) =   0
                l(3) =   1
                l(4) =   1
                l(5) =   2
                l(6) =   2
     Q(r) pseudized with 0 coefficients 


     atomic species   valence    mass     pseudopotential
        Cu            11.00    63.54600     Cu( 1.00)
        Ni            18.00    58.69300     Ni( 1.00)
        Pt            10.00   195.08000     Pt( 1.00)

     24 Sym. Ops. (no inversion) found



   Cartesian axes

     site n.     atom                  positions (alat units)
         1           Cu  tau(   1) = (   0.0000000   0.0000000   0.0000000  )
         2           Ni  tau(   2) = (   0.5000000   0.5000000   0.5000000  )
         3           Pt  tau(   3) = (   0.2500000   0.2500000   0.2500000  )

     number of k points=    47  Gaussian smearing, width (Ry)=  0.0100
                       cart. coord. in units 2pi/alat
        k(    1) = (   0.0000000   0.0000000   0.0000000), wk =   0.0020000
        k(    2) = (  -0.1000000   0.1000000  -0.1000000), wk =   0.0160000
        k(    3) = (  -0.2000000   0.2000000  -0.2000000), wk =   0.0160000
        k(    4) = (  -0.3000000   0.3000000  -0.3000000), wk =   0.0160000
        k(    5) = (  -0.4000000   0.4000000  -0.4000000), wk =   0.0160000
        k(    6) = (   0.5000000  -0.5000000   0.5000000), wk =   0.0080000
        k(    7) = (   0.0000000   0.2000000   0.0000000), wk =   0.0120000
        k(    8) = (  -0.1000000   0.3000000  -0.1000000), wk =   0.0480000
        k(    9) = (  -0.2000000   0.4000000  -0.2000000), wk =   0.0480000
        k(   10) = (  -0.3000000   0.5000000  -0.3000000), wk =   0.0480000
        k(   11) = (   0.6000000  -0.4000000   0.6000000), wk =   0.0480000
        k(   12) = (   0.5000000  -0.3000000   0.5000000), wk =   0.0480000
        k(   13) = (   0.4000000  -0.2000000   0.4000000), wk =   0.0480000
        k(   14) = (   0.3000000  -0.1000000   0.3000000), wk =   0.0480000
        k(   15) = (   0.2000000   0.0000000   0.2000000), wk =   0.0240000
        k(   16) = (   0.0000000   0.4000000   0.0000000), wk =   0.0120000
        k(   17) = (  -0.1000000   0.5000000  -0.1000000), wk =   0.0480000
        k(   18) = (  -0.2000000   0.6000000  -0.2000000), wk =   0.0480000
        k(   19) = (   0.7000000  -0.3000000   0.7000000), wk =   0.0480000
        k(   20) = (   0.6000000  -0.2000000   0.6000000), wk =   0.0480000
        k(   21) = (   0.5000000  -0.1000000   0.5000000), wk =   0.0480000
        k(   22) = (   0.4000000   0.0000000   0.4000000), wk =   0.0240000
        k(   23) = (   0.0000000   0.6000000   0.0000000), wk =   0.0120000
        k(   24) = (  -0.1000000   0.7000000  -0.1000000), wk =   0.0480000
        k(   25) = (   0.8000000  -0.2000000   0.8000000), wk =   0.0480000
        k(   26) = (   0.7000000  -0.1000000   0.7000000), wk =   0.0480000
        k(   27) = (   0.6000000  -0.0000000   0.6000000), wk =   0.0240000
        k(   28) = (   0.0000000   0.8000000   0.0000000), wk =   0.0120000
        k(   29) = (   0.9000000  -0.1000000   0.9000000), wk =   0.0480000
        k(   30) = (   0.8000000   0.0000000   0.8000000), wk =   0.0240000
        k(   31) = (   0.0000000  -1.0000000   0.0000000), wk =   0.0060000
        k(   32) = (  -0.2000000   0.4000000   0.0000000), wk =   0.0480000
        k(   33) = (  -0.3000000   0.5000000  -0.1000000), wk =   0.0960000
        k(   34) = (   0.6000000  -0.4000000   0.8000000), wk =   0.0960000
        k(   35) = (   0.5000000  -0.3000000   0.7000000), wk =   0.0480000
        k(   36) = (  -0.2000000   0.6000000   0.0000000), wk =   0.0480000
        k(   37) = (   0.7000000  -0.3000000   0.9000000), wk =   0.0960000
        k(   38) = (   0.6000000  -0.2000000   0.8000000), wk =   0.0960000
        k(   39) = (   0.5000000  -0.1000000   0.7000000), wk =   0.0960000
        k(   40) = (   0.4000000   0.0000000   0.6000000), wk =   0.0480000
        k(   41) = (   0.8000000  -0.2000000   1.0000000), wk =   0.0480000
        k(   42) = (   0.7000000  -0.1000000   0.9000000), wk =   0.0960000
        k(   43) = (   0.6000000   0.0000000   0.8000000), wk =   0.0480000
        k(   44) = (  -0.2000000  -1.0000000   0.0000000), wk =   0.0240000
        k(   45) = (   0.6000000  -0.2000000   1.0000000), wk =   0.0480000
        k(   46) = (   0.5000000  -0.1000000   0.9000000), wk =   0.0480000
        k(   47) = (  -0.4000000  -1.0000000   0.0000000), wk =   0.0240000

     Dense  grid:    16625 G-vectors     FFT dimensions: (  36,  36,  36)

     Estimated max dynamical RAM per process >     106.71 MB

     Check: negative core charge=   -0.000002

     Initial potential from superposition of free atoms

     starting charge   38.99935, renormalised to   39.00000
     Starting wfcs are   28 randomized atomic wfcs
     Checking if some PAW data can be deallocated... 

     total cpu time spent up to now is        3.0 secs

     Self-consistent Calculation

     iteration #  1     ecut=    60.00 Ry     beta= 0.70
     Davidson diagonalization with overlap
     ethr =  1.00E-02,  avg # of iterations =  6.1

     total cpu time spent up to now is       10.6 secs

     total energy              =   -1388.07553140 Ry
     estimated scf accuracy    <       1.69673858 Ry

     iteration #  2     ecut=    60.00 Ry     beta= 0.70
     Davidson diagonalization with overlap
     ethr =  4.35E-03,  avg # of iterations =  3.4

     total cpu time spent up to now is       18.4 secs

     total energy              =   -1386.04688168 Ry
     estimated scf accuracy    <      44.00171106 Ry

     iteration #  3     ecut=    60.00 Ry     beta= 0.70
     Davidson diagonalization with overlap
     ethr =  4.35E-03,  avg # of iterations =  3.9

     total cpu time spent up to now is       25.5 secs

     total energy              =   -1389.33345559 Ry
     estimated scf accuracy    <       0.58146610 Ry

     iteration #  4     ecut=    60.00 Ry     beta= 0.70
     Davidson diagonalization with overlap
     ethr =  1.49E-03,  avg # of iterations =  2.0

     total cpu time spent up to now is       31.0 secs

     total energy              =   -1389.38392464 Ry
     estimated scf accuracy    <       0.07039317 Ry

     iteration #  5     ecut=    60.00 Ry     beta= 0.70
     Davidson diagonalization with overlap
     ethr =  1.80E-04,  avg # of iterations =  2.3

     total cpu time spent up to now is       36.5 secs

     total energy              =   -1389.38335228 Ry
     estimated scf accuracy    <       0.02239313 Ry

     iteration #  6     ecut=    60.00 Ry     beta= 0.70
     Davidson diagonalization with overlap
     ethr =  5.74E-05,  avg # of iterations =  3.0

     total cpu time spent up to now is       42.6 secs

     total energy              =   -1389.38732025 Ry
     estimated scf accuracy    <       0.02517114 Ry

     iteration #  7     ecut=    60.00 Ry     beta= 0.70
     Davidson diagonalization with overlap
     ethr =  5.74E-05,  avg # of iterations =  1.0

     total cpu time spent up to now is       47.6 secs

     total energy              =   -1389.39011785 Ry
     estimated scf accuracy    <       0.00129716 Ry

     iteration #  8     ecut=    60.00 Ry     beta= 0.70
     Davidson diagonalization with overlap
     ethr =  3.33E-06,  avg # of iterations =  5.3

     total cpu time spent up to now is       53.9 secs

     total energy              =   -1389.39035064 Ry
     estimated scf accuracy    <       0.00010060 Ry

     iteration #  9     ecut=    60.00 Ry     beta= 0.70
     Davidson diagonalization with overlap
     ethr =  2.58E-07,  avg # of iterations =  4.5

     total cpu time spent up to now is       61.2 secs

     total energy              =   -1389.39039431 Ry
     estimated scf accuracy    <       0.00000680 Ry

     iteration # 10     ecut=    60.00 Ry     beta= 0.70
     Davidson diagonalization with overlap
     ethr =  1.74E-08,  avg # of iterations =  3.0

     total cpu time spent up to now is       67.3 secs

     total energy              =   -1389.39039524 Ry
     estimated scf accuracy    <       0.00000267 Ry

     iteration # 11     ecut=    60.00 Ry     beta= 0.70
     Davidson diagonalization with overlap
     ethr =  6.84E-09,  avg # of iterations =  2.2

     total cpu time spent up to now is       73.1 secs

     total energy              =   -1389.39039564 Ry
     estimated scf accuracy    <       0.00000056 Ry

     iteration # 12     ecut=    60.00 Ry     beta= 0.70
     Davidson diagonalization with overlap
     ethr =  1.42E-09,  avg # of iterations =  2.0

     total cpu time spent up to now is       78.5 secs

     total energy              =   -1389.39039562 Ry
     estimated scf accuracy    <       0.00000027 Ry

     iteration # 13     ecut=    60.00 Ry     beta= 0.70
     Davidson diagonalization with overlap
     ethr =  7.02E-10,  avg # of iterations =  1.6

     total cpu time spent up to now is       83.7 secs

     End of self-consistent calculation

          k = 0.0000 0.0000 0.0000 (  2085 PWs)   bands (ev):

   -87.8059 -48.2105 -48.2105 -48.2105   6.0278  10.0408  10.0408  10.4372
    10.4372  10.4372  12.0080  12.0080  12.0080  13.9558  13.9558  14.3052
    14.3052  14.3052  15.0679  15.0679  25.6905  26.2203  26.2204  26.2204
    26.4541  26.4543  26.4543  26.9631

          k =-0.1000 0.1000-0.1000 (  2079 PWs)   bands (ev):

   -87.8058 -48.2104 -48.2104 -48.2103   6.2048  10.0807  10.0807  10.3942
    10.4319  10.4319  12.0311  12.0529  12.0529  13.9127  13.9127  14.1537
    14.3018  14.3018  15.0577  15.0577  23.5089  25.2485  25.2485  25.6096
    26.7107  26.9640  26.9640  27.7388

          k =-0.2000 0.2000-0.2000 (  2079 PWs)   bands (ev):

   -87.8057 -48.2104 -48.2103 -48.2103   6.7132  10.1694  10.1694  10.3170
    10.4452  10.4452  12.0311  12.1731  12.1731  13.7491  13.7491  13.7994
    14.3180  14.3180  15.0512  15.0512  20.8048  24.1508  24.1508  25.1207
    26.8668  26.8668  27.1765  28.5983

          k =-0.3000 0.3000-0.3000 (  2072 PWs)   bands (ev):

   -87.8056 -48.2104 -48.2101 -48.2101   7.4683  10.2086  10.2086  10.3041
    10.5624  10.5624  11.8550  12.3307  12.3307  13.4623  13.4623  13.4842
    14.3760  14.3760  15.0704  15.0704  18.4365  23.1810  23.1810  24.6800
    26.7007  26.7007  27.5084  30.1314

          k =-0.4000 0.4000-0.4000 (  2078 PWs)   bands (ev):

   -87.8056 -48.2106 -48.2100 -48.2100   8.2494  10.1953  10.1953  10.4414
    10.7392  10.7392  11.4517  12.4796  12.4796  13.1544  13.1544  13.3619
    14.4444  14.4444  15.1004  15.1004  16.6756  22.5038  22.5038  24.4082
    26.5855  26.5855  27.6199  31.5822

          k = 0.5000-0.5000 0.5000 (  2060 PWs)   bands (ev):

   -87.8054 -48.2105 -48.2099 -48.2099   8.6129  10.1858  10.1858  10.6722
    10.8243  10.8243  11.0937  12.5570  12.5570  13.0009  13.0009  13.3505
    14.4749  14.4749  15.1147  15.1147  15.9793  22.2588  22.2588  24.3180
    26.5455  26.5455  27.6441  32.2892

          k = 0.0000 0.2000 0.0000 (  2073 PWs)   bands (ev):

   -87.8057 -48.2103 -48.2103 -48.2103   6.2648  10.0419  10.1447  10.3349
    10.4477  10.4477  11.9094  12.1417  12.1417  13.8813  13.9270  14.2330
    14.2330  14.2522  14.9728  15.1138  24.0280  24.0280  24.9728  25.0931
    25.9144  27.3748  27.3748  27.6064

          k =-0.1000 0.3000-0.1000 (  2072 PWs)   bands (ev):

   -87.8056 -48.2105 -48.2102 -48.2101   6.6660  10.0654  10.2318  10.2606
    10.4486  10.4725  11.8756  12.2671  12.3019  13.7742  13.7998  13.9554
    14.2174  14.3138  14.8969  15.1336  21.6215  22.9398  24.2957  24.9287
    25.9862  27.3316  27.6965  28.2405

          k =-0.2000 0.4000-0.2000 (  2073 PWs)   bands (ev):

   -87.8056 -48.2105 -48.2101 -48.2100   7.3481  10.0642  10.2266  10.2998
    10.4701  10.6077  11.9017  12.3241  12.4848  13.4844  13.5616  13.6373
    14.3069  14.3655  14.8885  15.1459  19.1407  22.0868  23.1691  24.5144
    27.1466  27.5487  27.7416  28.4290

          k =-0.3000 0.5000-0.3000 (  2081 PWs)   bands (ev):

   -87.8056 -48.2107 -48.2100 -48.2100   8.1467  10.0312  10.2687  10.3294
    10.5668  10.7995  11.8061  12.3638  12.6310  13.1228  13.3146  13.4446
    14.3983  14.4256  14.9691  15.1446  17.1317  21.5989  22.1062  24.2944
    27.2155  27.5332  28.4027  29.3100

          k = 0.6000-0.4000 0.6000 (  2076 PWs)   bands (ev):

   -87.8055 -48.2106 -48.2100 -48.2099   8.6883  10.0417  10.2351  10.4745
    10.6638  10.8907  11.5990  12.4992  12.6101  12.9814  13.1087  13.3757
    14.4199  14.4954  15.0944  15.0971  16.0051  21.3495  21.6037  24.2308
    27.2281  27.2521  28.4544  31.2017

          k = 0.5000-0.3000 0.5000 (  2077 PWs)   bands (ev):

   -87.8056 -48.2107 -48.2100 -48.2099   8.5594  10.0863  10.2209  10.4550
    10.6696  10.7902  11.6763  12.4407  12.6317  13.0145  13.1508  13.3740
    14.3938  14.5046  14.9903  15.1731  16.2681  21.0462  22.1486  24.3281
    26.9394  27.2119  28.6388  31.4528

          k = 0.4000-0.2000 0.4000 (  2075 PWs)   bands (ev):

   -87.8056 -48.2106 -48.2100 -48.2100   7.8765  10.1331  10.2237  10.3253
    10.5754  10.6239  11.9283  12.2839  12.5657  13.2276  13.4212  13.4465
    14.3621  14.4283  14.9017  15.1812  17.7576  21.2324  23.1612  24.6057
    26.7345  27.0899  28.7761  29.9247

          k = 0.3000-0.1000 0.3000 (  2075 PWs)   bands (ev):

   -87.8056 -48.2105 -48.2102 -48.2101   7.0908  10.1913  10.1948  10.2750
    10.4186  10.5246  12.0433  12.1457  12.4135  13.5769  13.6650  13.6747
    14.3038  14.3477  14.8988  15.1505  19.9545  21.8172  24.4957  25.0933
    26.6578  26.8197  28.2564  28.2729

          k = 0.2000 0.0000 0.2000 (  2071 PWs)   bands (ev):

   -87.8057 -48.2104 -48.2103 -48.2101   6.4936  10.1083  10.1672  10.3171
    10.4066  10.4659  12.0231  12.0575  12.2356  13.8223  13.8363  13.9910
    14.2354  14.3391  14.9663  15.1117  22.4129  22.7669  25.7596  25.8806
    26.3025  26.6272  27.0511  27.6528

          k = 0.0000 0.4000 0.0000 (  2073 PWs)   bands (ev):

   -87.8056 -48.2106 -48.2101 -48.2101   6.9576   9.9535  10.0919  10.4482
    10.4817  10.4817  11.7236  12.5041  12.5041  13.7260  13.8125  14.0871
    14.0871  14.1823  14.7304  15.1581  21.7587  21.7587  22.6517  24.3516
    24.8257  28.4788  28.4788  29.6211

          k =-0.1000 0.5000-0.1000 (  2065 PWs)   bands (ev):

   -87.8055 -48.2106 -48.2100 -48.2099   7.5470   9.8234  10.0482  10.4525
    10.4992  10.7066  11.7132  12.6687  12.7138  13.5342  13.6283  13.8362
    14.1727  14.2904  14.6570  15.1623  19.7182  20.8129  21.5921  24.3115
    25.3156  28.8180  29.0068  30.4331

          k =-0.2000 0.6000-0.2000 (  2072 PWs)   bands (ev):

   -87.8055 -48.2108 -48.2099 -48.2098   8.3076   9.7250  10.0960  10.4046
    10.5372  10.9609  11.8135  12.6970  12.8766  13.0893  13.4353  13.6469
    14.2772  14.4095  14.7975  15.1569  17.5841  20.2620  20.5472  24.2434
    26.7760  28.7905  29.0311  30.5677

          k = 0.7000-0.3000 0.7000 (  2078 PWs)   bands (ev):

   -87.8055 -48.2107 -48.2099 -48.2098   8.9220   9.7348  10.1854  10.3501
    10.6103  11.1031  11.9598  12.6557  12.6796  13.0079  13.2852  13.5157
    14.2638  14.5331  15.0623  15.1215  16.0844  19.6539  20.2662  24.2381
    28.3819  28.6851  28.7359  30.8228

          k = 0.6000-0.2000 0.6000 (  2092 PWs)   bands (ev):

   -87.8057 -48.2109 -48.2100 -48.2098   8.9605   9.8847  10.2860  10.3087
    10.5898  11.0000  12.1282  12.4443  12.6911  13.1417  13.1521  13.4301
    14.2414  14.5447  14.9604  15.2226  15.9652  19.1119  20.8831  24.3337
    28.2347  28.2399  29.8929  31.6492

          k = 0.5000-0.1000 0.5000 (  2084 PWs)   bands (ev):

   -87.8056 -48.2108 -48.2100 -48.2099   8.4662   9.9917  10.2899  10.2984
    10.5566  10.7227  12.2190  12.3138  12.8090  13.0121  13.3497  13.4384
    14.2585  14.5377  14.7283  15.2542  17.2034  19.0740  21.9870  24.5390
    27.8267  27.9251  29.3487  30.0985

          k = 0.4000 0.0000 0.4000 (  2085 PWs)   bands (ev):

   -87.8057 -48.2106 -48.2102 -48.2100   7.7330  10.0814  10.2724  10.2850
    10.4786  10.5641  12.1651  12.2060  12.6469  13.2693  13.5266  13.5435
    14.3108  14.4148  14.7387  15.2166  18.9556  19.7229  23.3433  24.8367
    27.4115  27.4265  28.3837  28.6278

          k = 0.0000 0.6000 0.0000 (  2060 PWs)   bands (ev):

   -87.8054 -48.2108 -48.2098 -48.2098   8.0409   9.6059   9.9176  10.5346
    10.5346  10.9255  11.5866  12.9089  12.9089  13.5157  13.6374  14.1091
    14.1261  14.1261  14.4822  15.1718  19.7019  19.7019  19.8079  23.9741
    24.6146  30.1788  30.1788  32.1132

          k =-0.1000 0.7000-0.1000 (  2086 PWs)   bands (ev):

   -87.8056 -48.2111 -48.2098 -48.2098   8.7287   9.4612   9.8804  10.5268
    10.5604  11.2174  11.5845  12.9711  12.9852  13.1928  13.5765  13.9393
    14.2099  14.4185  14.6474  15.1982  17.8821  18.9641  19.0095  24.1340
    25.0504  30.6398  30.7347  32.9234

          k = 0.8000-0.2000 0.8000 (  2097 PWs)   bands (ev):

   -87.8057 -48.2111 -48.2098 -48.2098   9.2589   9.5233   9.9315  10.4735
    10.5883  11.4516  11.7205  12.6055  13.0190  13.1798  13.4522  13.8192
    14.1035  14.6624  15.0699  15.2870  16.2283  18.1000  18.8369  24.2244
    26.5152  30.4100  30.4239  32.8148

          k = 0.7000-0.1000 0.7000 (  2090 PWs)   bands (ev):

   -87.8057 -48.2110 -48.2098 -48.2097   9.2359   9.8539  10.0477  10.4066
    10.5512  11.3929  12.0273  12.3628  13.0419  13.2333  13.3544  13.6449
    14.0500  14.5960  15.1525  15.2810  15.8745  17.4193  19.4504  24.3063
    28.4399  29.7502  29.9444  31.6343

          k = 0.6000-0.0000 0.6000 (  2095 PWs)   bands (ev):

   -87.8057 -48.2109 -48.2099 -48.2098   8.9970   9.9293  10.2072  10.3465
    10.4899  11.0420  12.3068  12.3466  12.9018  13.1674  13.2766  13.4878
    14.1209  14.4602  14.8818  15.3027  16.7537  17.4663  20.6078  24.4211
    28.9167  29.2412  29.6793  30.9320

          k = 0.0000 0.8000 0.0000 (  2084 PWs)   bands (ev):

   -87.8056 -48.2112 -48.2097 -48.2097   9.2460   9.3543   9.8012  10.5854
    10.5854  11.3600  11.5244  12.9905  13.0314  13.0314  13.6324  14.0388
    14.3520  14.7139  14.7139  15.2826  17.4413  17.9607  17.9607  23.8813
    24.5451  32.3792  32.3792  33.8699

          k = 0.9000-0.1000 0.9000 (  2091 PWs)   bands (ev):

   -87.8057 -48.2113 -48.2097 -48.2096   9.2187   9.6496  10.0461  10.5691
    10.5816  11.2823  11.8305  12.5179  13.0494  13.1564  13.5944  13.9897
    14.1896  15.0547  15.1764  15.5172  16.3668  17.1096  17.6007  24.1104
    24.9670  32.2984  32.7208  34.5261

          k = 0.8000 0.0000 0.8000 (  2097 PWs)   bands (ev):

   -87.8057 -48.2112 -48.2097 -48.2097   9.2435   9.8094  10.0898  10.4990
    10.5368  11.6158  11.8894  12.1805  13.1229  13.2815  13.4906  13.9053
    14.0047  15.0802  15.3287  15.3855  16.1097  16.3728  18.2121  24.2409
    26.4506  31.1738  31.9690  32.4369

          k = 0.0000-1.0000 0.0000 (  2100 PWs)   bands (ev):

   -87.8058 -48.2114 -48.2097 -48.2097   9.1613   9.6062  10.5347  10.6067
    10.6067  10.7969  12.0092  12.5186  13.0211  13.0211  13.6423  14.0096
    14.3171  15.3255  15.3255  15.6254  16.1830  17.0042  17.0042  23.8774
    24.5286  33.7829  34.5471  34.5471

          k =-0.2000 0.4000 0.0000 (  2075 PWs)   bands (ev):

   -87.8056 -48.2106 -48.2101 -48.2100   7.1595  10.0182  10.1566  10.3583
    10.4462  10.5603  11.8520  12.3923  12.5244  13.5963  13.6709  13.7789
    14.2423  14.3180  14.7898  15.1619  20.5016  21.0241  23.3291  25.2151
    25.6938  27.5320  28.2241  29.5043

          k =-0.3000 0.5000-0.1000 (  2081 PWs)   bands (ev):

   -87.8056 -48.2107 -48.2100 -48.2100   7.8843   9.9259  10.2048  10.3575
    10.4787  10.7299  11.9320  12.4612  12.7146  13.2368  13.4920  13.5753
    14.2995  14.4103  14.7589  15.1887  18.3749  20.1926  22.1814  24.9691
    26.7267  27.6640  28.5327  30.1485

          k = 0.6000-0.4000 0.8000 (  2072 PWs)   bands (ev):

   -87.8055 -48.2108 -48.2099 -48.2098   8.6128   9.8751  10.2646  10.3354
    10.5681  10.9077  12.0036  12.4573  12.7763  12.9710  13.2988  13.4544
    14.2861  14.5368  14.8803  15.1969  16.5971  19.8917  21.1695  24.7308
    27.0601  28.5531  29.0678  30.3566

          k = 0.5000-0.3000 0.7000 (  2084 PWs)   bands (ev):

   -87.8056 -48.2108 -48.2099 -48.2098   8.9354   9.8657  10.2730  10.3494
    10.6371  10.9911  12.0057  12.4892  12.6274  13.0228  13.1941  13.4095
    14.2755  14.6023  15.0044  15.1748  15.8357  19.9136  20.6665  24.6514
    27.0697  28.7696  29.5579  31.4324

          k =-0.2000 0.6000 0.0000 (  2078 PWs)   bands (ev):

   -87.8056 -48.2109 -48.2099 -48.2098   8.1854   9.6627  10.0106  10.4674
    10.5233  10.9404  11.7260  12.8154  12.9043  13.2450  13.5626  13.7542
    14.2237  14.3626  14.6377  15.1764  18.6509  19.2782  20.5436  24.7870
    25.3087  28.8254  30.0000  31.9330

          k = 0.7000-0.3000 0.9000 (  2080 PWs)   bands (ev):

   -87.8056 -48.2109 -48.2098 -48.2098   8.8874   9.5807  10.0372  10.4403
    10.5664  11.1709  11.8526  12.8232  12.8787  13.0161  13.4474  13.6600
    14.1436  14.5989  14.8424  15.2193  16.9414  18.6358  19.6146  24.9357
    26.6074  28.4630  30.5057  32.0962

          k = 0.6000-0.2000 0.8000 (  2086 PWs)   bands (ev):

   -87.8056 -48.2109 -48.2098 -48.2097   9.2371   9.6625  10.0976  10.4124
    10.6138  11.2660  12.0827  12.4884  12.8852  13.0638  13.3940  13.5371
    14.0793  14.7468  15.0734  15.2924  15.7565  18.3197  19.2912  25.0036
    27.8841  28.6436  30.3926  31.1784

          k = 0.5000-0.1000 0.7000 (  2084 PWs)   bands (ev):

   -87.8056 -48.2109 -48.2099 -48.2097   9.0871   9.7665  10.1685  10.4080
    10.5491  11.1191  12.2131  12.4542  12.8395  13.0640  13.3863  13.4677
    14.0927  14.6526  14.9056  15.2921  16.2678  18.0150  19.9524  25.1840
    27.5812  29.0387  30.2193  30.6740

          k = 0.4000 0.0000 0.6000 (  2089 PWs)   bands (ev):

   -87.8057 -48.2109 -48.2100 -48.2099   8.5607   9.8147  10.2032  10.4021
    10.4827  10.8883  12.0670  12.5619  12.8967  12.9910  13.4314  13.4889
    14.1905  14.6038  14.6694  15.2487  17.5757  18.3966  21.0314  25.4006
    26.9588  27.9136  29.5117  31.1272

          k = 0.8000-0.2000 1.0000 (  2079 PWs)   bands (ev):

   -87.8055 -48.2110 -48.2097 -48.2097   9.3040   9.3984   9.8573  10.5212
    10.5976  11.4980  11.5666  12.7253  13.0233  13.1784  13.5540  13.8943
    14.1191  14.7660  14.9289  15.3088  16.9817  17.7426  18.2514  24.6605
    25.1573  30.3846  32.1448  33.5006

          k = 0.7000-0.1000 0.9000 (  2097 PWs)   bands (ev):

   -87.8057 -48.2111 -48.2098 -48.2097   9.3167   9.7591   9.9035  10.5104
    10.6132  11.6813  11.7514  12.3612  13.0359  13.2797  13.4976  13.7163
    14.0174  14.9577  15.2878  15.6356  15.8293  17.0574  17.9606  24.9534
    26.5151  29.7645  31.5327  32.5397

          k = 0.6000 0.0000 0.8000 (  2099 PWs)   bands (ev):

   -87.8057 -48.2111 -48.2098 -48.2097   9.3037   9.8039  10.0116  10.5038
    10.5472  11.4725  12.1079  12.2998  13.0654  13.1682  13.4759  13.5563
    13.9872  14.8270  15.1082  15.3863  16.2576  16.6728  18.7546  25.1043
    28.5231  28.9448  29.7910  31.6119

          k =-0.2000-1.0000 0.0000 (  2094 PWs)   bands (ev):

   -87.8057 -48.2112 -48.2097 -48.2096   9.2219   9.7088  10.1544  10.5389
    10.6290  11.3274  12.1036  12.1686  13.0088  13.2776  13.5698  13.9167
    14.0815  15.1675  15.3992  15.8581  15.9490  16.9109  17.0247  24.6485
    25.1181  31.5328  32.7575  34.0236

          k = 0.6000-0.2000 1.0000 (  2077 PWs)   bands (ev):

   -87.8055 -48.2109 -48.2098 -48.2095   9.3638   9.5284  10.0123  10.4812
    10.6061  11.3842  12.0011  12.5464  13.0016  13.0220  13.4730  13.6012
    14.0146  14.8486  15.0437  15.3780  16.4534  17.2381  18.5955  26.2624
    26.7534  28.1050  30.9495  31.7755

          k = 0.5000-0.1000 0.9000 (  2096 PWs)   bands (ev):

   -87.8057 -48.2110 -48.2098 -48.2096   9.4657   9.5803  10.0037  10.5068
    10.6444  11.5019  12.1809  12.3247  13.0150  13.0591  13.4459  13.5668
    13.9911  14.9362  15.3241  15.5988  15.7333  17.0807  17.9939  26.4168
    27.5788  28.8191  28.9497  32.3206

          k =-0.4000-1.0000 0.0000 (  2102 PWs)   bands (ev):

   -87.8058 -48.2111 -48.2098 -48.2095   9.4065   9.7209   9.9109  10.5424
    10.6723  11.7458  11.9592  12.2560  12.9808  13.3238  13.4065  13.5693
    14.0118  15.0259  15.5109  15.6213  16.2410  16.6302  17.0313  26.5845
    26.6930  28.9226  29.6392  33.4918

     the Fermi energy is    15.2674 ev

!    total energy              =   -1389.39039557 Ry

     total all-electron energy =    -43178.890177 Ry
     estimated scf accuracy    <       0.00000008 Ry
     smearing contrib. (-TS)   =      -0.00422980 Ry
     internal energy E=F+TS    =   -1389.38616577 Ry

     The total energy is F=E-TS. E is the sum of the following terms:
     one-electron contribution =    -257.36823475 Ry
     hartree contribution      =     169.76257179 Ry
     xc contribution           =    -103.16726411 Ry
     ewald contribution        =    -332.88303095 Ry
     one-center paw contrib.   =    -865.73020776 Ry

     convergence has been achieved in  13 iterations

     Writing output data file ././cunipt.save/

     init_run     :      2.77s CPU      2.81s WALL (       1 calls)
     electrons    :     79.66s CPU     80.68s WALL (       1 calls)

     Called by init_run:
     wfcinit      :      1.70s CPU      1.71s WALL (       1 calls)
     potinit      :      0.33s CPU      0.33s WALL (       1 calls)
     hinit0       :      0.68s CPU      0.68s WALL (       1 calls)

     Called by electrons:
     c_bands      :     66.42s CPU     66.53s WALL (      13 calls)
     sum_band     :      8.36s CPU      8.85s WALL (      13 calls)
     v_of_rho     :      0.17s CPU      0.17s WALL (      14 calls)
     newd         :      0.64s CPU      1.04s WALL (      14 calls)
     PAW_pot      :      4.40s CPU      4.45s WALL (      14 calls)
     mix_rho      :      0.03s CPU      0.03s WALL (      13 calls)

     Called by c_bands:
     init_us_2    :      0.76s CPU      0.77s WALL (    1269 calls)
     cegterg      :     63.73s CPU     63.83s WALL (     611 calls)

     Called by *egterg:
     cdiaghg      :      1.77s CPU      1.77s WALL (    2494 calls)
     h_psi        :     35.75s CPU     35.84s WALL (    2541 calls)
     s_psi        :      5.99s CPU      6.00s WALL (    2541 calls)
     g_psi        :      0.23s CPU      0.23s WALL (    1883 calls)

     Called by h_psi:
     h_psi:calbec :      5.51s CPU      5.52s WALL (    2541 calls)
     vloc_psi     :     24.07s CPU     24.13s WALL (    2541 calls)
     add_vuspsi   :      6.05s CPU      6.05s WALL (    2541 calls)

     General routines
     calbec       :      7.67s CPU      7.67s WALL (    3152 calls)
     fft          :      0.07s CPU      0.07s WALL (     154 calls)
     ffts         :      0.01s CPU      0.01s WALL (      13 calls)
     fftw         :     25.11s CPU     25.19s WALL (  102746 calls)

     Parallel routines

     PWSCF        :   1m22.64s CPU   1m23.76s WALL


   This run was terminated on:  20:30:52  13Sep2024            

=------------------------------------------------------------------------------=
   JOB DONE.
=------------------------------------------------------------------------------=
