
     Program PWSCF v.6.7MaX starts on 13Sep2024 at 20:58:30 

     This program is part of the open-source Quantum ESPRESSO suite
     for quantum simulation of materials; please cite
         "P. Giannozzi et al., J. Phys.:Condens. Matter 21 395502 (2009);
         "P. Giannozzi et al., J. Phys.:Condens. Matter 29 465901 (2017);
          URL http://www.quantum-espresso.org", 
     in publications or presentations arising from this work. More details at
     http://www.quantum-espresso.org/quote

     Parallel version (MPI), running on     1 processors

     MPI processes distributed on     1 nodes
     Waiting for input...
     Reading input from standard input

     Current dimensions of program PWSCF are:
     Max number of different atomic species (ntypx) = 10
     Max number of k-points (npk) =  40000
     Max angular momentum in pseudopotentials (lmaxx) =  3
     file Cu.upf: wavefunction(s)  4S 3D renormalized
     file Ni.upf: wavefunction(s)  3P 3D renormalized
     file Pt.upf: wavefunction(s)  6S 5D renormalized

     Subspace diagonalization in iterative solution of the eigenvalue problem:
     a serial algorithm will be used


     G-vector sticks info
     --------------------
     sticks:   dense  smooth     PW     G-vecs:    dense   smooth      PW
     Sum        1069    1069    313                23289    23289    3767



     bravais-lattice index     =            2
     lattice parameter (alat)  =      11.4000  a.u.
     unit-cell volume          =     370.3860 (a.u.)^3
     number of atoms/cell      =            3
     number of atomic types    =            3
     number of electrons       =        39.00
     number of Kohn-Sham states=           28
     kinetic-energy cutoff     =      60.0000  Ry
     charge density cutoff     =     240.0000  Ry
     scf convergence threshold =      1.0E-07
     mixing beta               =       0.7000
     number of iterations used =            8  plain     mixing
     Exchange-correlation= SLA  PW   PBX  PBC
                           (   1   4   3   4   0   0   0)

     celldm(1)=  11.400000  celldm(2)=   0.000000  celldm(3)=   0.000000
     celldm(4)=   0.000000  celldm(5)=   0.000000  celldm(6)=   0.000000

     crystal axes: (cart. coord. in units of alat)
               a(1) = (  -0.500000   0.000000   0.500000 )  
               a(2) = (   0.000000   0.500000   0.500000 )  
               a(3) = (  -0.500000   0.500000   0.000000 )  

     reciprocal axes: (cart. coord. in units 2 pi/alat)
               b(1) = ( -1.000000 -1.000000  1.000000 )  
               b(2) = (  1.000000  1.000000  1.000000 )  
               b(3) = ( -1.000000  1.000000 -1.000000 )  


     PseudoPot. # 1 for Cu read from file:
     ././Cu.upf
     MD5 check sum: cfffd1f38ee05704b3e17f46f1730a6f
     Pseudo is Projector augmented-wave + core cor, Zval = 11.0
     Generated using &quot;atomic&quot; code by A. Dal Corso  v.6.3
     Shape of augmentation charge: PSQ
     Using radial grid of 1199 points,  6 beta functions with: 
                l(1) =   0
                l(2) =   0
                l(3) =   1
                l(4) =   1
                l(5) =   2
                l(6) =   2
     Q(r) pseudized with 0 coefficients 


     PseudoPot. # 2 for Ni read from file:
     ././Ni.upf
     MD5 check sum: 6e86b733589c3ad8389697b807d86aa7
     Pseudo is Projector augmented-wave + core cor, Zval = 18.0
     Generated using &quot;atomic&quot; code by A. Dal Corso  v.6.3
     Shape of augmentation charge: PSQ
     Using radial grid of 1195 points,  6 beta functions with: 
                l(1) =   0
                l(2) =   0
                l(3) =   1
                l(4) =   1
                l(5) =   2
                l(6) =   2
     Q(r) pseudized with 0 coefficients 


     PseudoPot. # 3 for Pt read from file:
     ././Pt.upf
     MD5 check sum: c5224e9cd7a5e36e81f2def9f50bb494
     Pseudo is Projector augmented-wave + core cor, Zval = 10.0
     Generated using &quot;atomic&quot; code by A. Dal Corso  v.6.3
     Shape of augmentation charge: PSQ
     Using radial grid of 1277 points,  6 beta functions with: 
                l(1) =   0
                l(2) =   0
                l(3) =   1
                l(4) =   1
                l(5) =   2
                l(6) =   2
     Q(r) pseudized with 0 coefficients 


     atomic species   valence    mass     pseudopotential
        Cu            11.00    63.54600     Cu( 1.00)
        Ni            18.00    58.69300     Ni( 1.00)
        Pt            10.00   195.08000     Pt( 1.00)

     24 Sym. Ops. (no inversion) found



   Cartesian axes

     site n.     atom                  positions (alat units)
         1           Cu  tau(   1) = (   0.0000000   0.0000000   0.0000000  )
         2           Ni  tau(   2) = (   0.5000000   0.5000000   0.5000000  )
         3           Pt  tau(   3) = (   0.2500000   0.2500000   0.2500000  )

     number of k points=    47  Gaussian smearing, width (Ry)=  0.0100
                       cart. coord. in units 2pi/alat
        k(    1) = (   0.0000000   0.0000000   0.0000000), wk =   0.0020000
        k(    2) = (  -0.1000000   0.1000000  -0.1000000), wk =   0.0160000
        k(    3) = (  -0.2000000   0.2000000  -0.2000000), wk =   0.0160000
        k(    4) = (  -0.3000000   0.3000000  -0.3000000), wk =   0.0160000
        k(    5) = (  -0.4000000   0.4000000  -0.4000000), wk =   0.0160000
        k(    6) = (   0.5000000  -0.5000000   0.5000000), wk =   0.0080000
        k(    7) = (   0.0000000   0.2000000   0.0000000), wk =   0.0120000
        k(    8) = (  -0.1000000   0.3000000  -0.1000000), wk =   0.0480000
        k(    9) = (  -0.2000000   0.4000000  -0.2000000), wk =   0.0480000
        k(   10) = (  -0.3000000   0.5000000  -0.3000000), wk =   0.0480000
        k(   11) = (   0.6000000  -0.4000000   0.6000000), wk =   0.0480000
        k(   12) = (   0.5000000  -0.3000000   0.5000000), wk =   0.0480000
        k(   13) = (   0.4000000  -0.2000000   0.4000000), wk =   0.0480000
        k(   14) = (   0.3000000  -0.1000000   0.3000000), wk =   0.0480000
        k(   15) = (   0.2000000   0.0000000   0.2000000), wk =   0.0240000
        k(   16) = (   0.0000000   0.4000000   0.0000000), wk =   0.0120000
        k(   17) = (  -0.1000000   0.5000000  -0.1000000), wk =   0.0480000
        k(   18) = (  -0.2000000   0.6000000  -0.2000000), wk =   0.0480000
        k(   19) = (   0.7000000  -0.3000000   0.7000000), wk =   0.0480000
        k(   20) = (   0.6000000  -0.2000000   0.6000000), wk =   0.0480000
        k(   21) = (   0.5000000  -0.1000000   0.5000000), wk =   0.0480000
        k(   22) = (   0.4000000   0.0000000   0.4000000), wk =   0.0240000
        k(   23) = (   0.0000000   0.6000000   0.0000000), wk =   0.0120000
        k(   24) = (  -0.1000000   0.7000000  -0.1000000), wk =   0.0480000
        k(   25) = (   0.8000000  -0.2000000   0.8000000), wk =   0.0480000
        k(   26) = (   0.7000000  -0.1000000   0.7000000), wk =   0.0480000
        k(   27) = (   0.6000000  -0.0000000   0.6000000), wk =   0.0240000
        k(   28) = (   0.0000000   0.8000000   0.0000000), wk =   0.0120000
        k(   29) = (   0.9000000  -0.1000000   0.9000000), wk =   0.0480000
        k(   30) = (   0.8000000   0.0000000   0.8000000), wk =   0.0240000
        k(   31) = (   0.0000000  -1.0000000   0.0000000), wk =   0.0060000
        k(   32) = (  -0.2000000   0.4000000   0.0000000), wk =   0.0480000
        k(   33) = (  -0.3000000   0.5000000  -0.1000000), wk =   0.0960000
        k(   34) = (   0.6000000  -0.4000000   0.8000000), wk =   0.0960000
        k(   35) = (   0.5000000  -0.3000000   0.7000000), wk =   0.0480000
        k(   36) = (  -0.2000000   0.6000000   0.0000000), wk =   0.0480000
        k(   37) = (   0.7000000  -0.3000000   0.9000000), wk =   0.0960000
        k(   38) = (   0.6000000  -0.2000000   0.8000000), wk =   0.0960000
        k(   39) = (   0.5000000  -0.1000000   0.7000000), wk =   0.0960000
        k(   40) = (   0.4000000   0.0000000   0.6000000), wk =   0.0480000
        k(   41) = (   0.8000000  -0.2000000   1.0000000), wk =   0.0480000
        k(   42) = (   0.7000000  -0.1000000   0.9000000), wk =   0.0960000
        k(   43) = (   0.6000000   0.0000000   0.8000000), wk =   0.0480000
        k(   44) = (  -0.2000000  -1.0000000   0.0000000), wk =   0.0240000
        k(   45) = (   0.6000000  -0.2000000   1.0000000), wk =   0.0480000
        k(   46) = (   0.5000000  -0.1000000   0.9000000), wk =   0.0480000
        k(   47) = (  -0.4000000  -1.0000000   0.0000000), wk =   0.0240000

     Dense  grid:    23289 G-vectors     FFT dimensions: (  40,  40,  40)

     Estimated max dynamical RAM per process >     147.70 MB

     Check: negative core charge=   -0.000003

     Initial potential from superposition of free atoms

     starting charge   38.99935, renormalised to   39.00000
     Starting wfcs are   28 randomized atomic wfcs
     Checking if some PAW data can be deallocated... 

     total cpu time spent up to now is        3.8 secs

     Self-consistent Calculation

     iteration #  1     ecut=    60.00 Ry     beta= 0.70
     Davidson diagonalization with overlap
     ethr =  1.00E-02,  avg # of iterations =  6.2

     total cpu time spent up to now is       14.5 secs

     total energy              =   -1387.85042165 Ry
     estimated scf accuracy    <       2.02348300 Ry

     iteration #  2     ecut=    60.00 Ry     beta= 0.70
     Davidson diagonalization with overlap
     ethr =  5.19E-03,  avg # of iterations =  3.3

     total cpu time spent up to now is       26.2 secs

     total energy              =   -1386.03074030 Ry
     estimated scf accuracy    <      58.36949757 Ry

     iteration #  3     ecut=    60.00 Ry     beta= 0.70
     Davidson diagonalization with overlap
     ethr =  5.19E-03,  avg # of iterations =  4.2

     total cpu time spent up to now is       37.5 secs

     total energy              =   -1389.38510186 Ry
     estimated scf accuracy    <       0.69236587 Ry

     iteration #  4     ecut=    60.00 Ry     beta= 0.70
     Davidson diagonalization with overlap
     ethr =  1.78E-03,  avg # of iterations =  1.0

     total cpu time spent up to now is       44.8 secs

     total energy              =   -1389.42756740 Ry
     estimated scf accuracy    <       0.12370480 Ry

     iteration #  5     ecut=    60.00 Ry     beta= 0.70
     Davidson diagonalization with overlap
     ethr =  3.17E-04,  avg # of iterations =  1.6

     total cpu time spent up to now is       52.5 secs

     total energy              =   -1389.42999232 Ry
     estimated scf accuracy    <       0.03180185 Ry

     iteration #  6     ecut=    60.00 Ry     beta= 0.70
     Davidson diagonalization with overlap
     ethr =  8.15E-05,  avg # of iterations =  2.5

     total cpu time spent up to now is       60.7 secs

     total energy              =   -1389.43347334 Ry
     estimated scf accuracy    <       0.00956947 Ry

     iteration #  7     ecut=    60.00 Ry     beta= 0.70
     Davidson diagonalization with overlap
     ethr =  2.45E-05,  avg # of iterations =  3.1

     total cpu time spent up to now is       69.4 secs

     total energy              =   -1389.43460400 Ry
     estimated scf accuracy    <       0.00839690 Ry

     iteration #  8     ecut=    60.00 Ry     beta= 0.70
     Davidson diagonalization with overlap
     ethr =  2.15E-05,  avg # of iterations =  1.1

     total cpu time spent up to now is       77.6 secs

     total energy              =   -1389.43538587 Ry
     estimated scf accuracy    <       0.00101346 Ry

     iteration #  9     ecut=    60.00 Ry     beta= 0.70
     Davidson diagonalization with overlap
     ethr =  2.60E-06,  avg # of iterations =  5.7

     total cpu time spent up to now is       88.2 secs

     total energy              =   -1389.43559739 Ry
     estimated scf accuracy    <       0.00009765 Ry

     iteration # 10     ecut=    60.00 Ry     beta= 0.70
     Davidson diagonalization with overlap
     ethr =  2.50E-07,  avg # of iterations =  3.9

     total cpu time spent up to now is       98.8 secs

     total energy              =   -1389.43562095 Ry
     estimated scf accuracy    <       0.00004945 Ry

     iteration # 11     ecut=    60.00 Ry     beta= 0.70
     Davidson diagonalization with overlap
     ethr =  1.27E-07,  avg # of iterations =  1.1

     total cpu time spent up to now is      107.1 secs

     total energy              =   -1389.43561510 Ry
     estimated scf accuracy    <       0.00004706 Ry

     iteration # 12     ecut=    60.00 Ry     beta= 0.70
     Davidson diagonalization with overlap
     ethr =  1.21E-07,  avg # of iterations =  1.0

     total cpu time spent up to now is      115.1 secs

     total energy              =   -1389.43561835 Ry
     estimated scf accuracy    <       0.00000103 Ry

     iteration # 13     ecut=    60.00 Ry     beta= 0.70
     Davidson diagonalization with overlap
     ethr =  2.63E-09,  avg # of iterations =  3.7

     total cpu time spent up to now is      126.6 secs

     total energy              =   -1389.43561794 Ry
     estimated scf accuracy    <       0.00000165 Ry

     iteration # 14     ecut=    60.00 Ry     beta= 0.70
     Davidson diagonalization with overlap
     ethr =  2.63E-09,  avg # of iterations =  2.0

     total cpu time spent up to now is      136.4 secs

     total energy              =   -1389.43561821 Ry
     estimated scf accuracy    <       0.00000018 Ry

     iteration # 15     ecut=    60.00 Ry     beta= 0.70
     Davidson diagonalization with overlap
     ethr =  4.62E-10,  avg # of iterations =  1.3

     total cpu time spent up to now is      144.4 secs

     End of self-consistent calculation

          k = 0.0000 0.0000 0.0000 (  2891 PWs)   bands (ev):

   -93.2650 -53.6555 -53.6555 -53.6555   2.4462   6.0509   6.0509   6.1605
     6.1605   6.1605   7.2083   7.2083   7.2083   8.3433   8.3433   8.6882
     8.6882   8.6882   9.1031   9.1031  16.6651  18.0460  18.0460  18.0460
    18.1523  18.1523  18.1523  19.0169

          k =-0.1000 0.1000-0.1000 (  2861 PWs)   bands (ev):

   -93.2647 -53.6553 -53.6553 -53.6553   2.5798   6.0701   6.0701   6.1295
     6.1669   6.1669   7.2202   7.2325   7.2325   8.3318   8.3318   8.6030
     8.6716   8.6716   9.1022   9.1022  15.5747  16.9697  17.1592  17.1592
    18.9335  18.9645  18.9645  19.3704

          k =-0.2000 0.2000-0.2000 (  2893 PWs)   bands (ev):

   -93.2650 -53.6556 -53.6554 -53.6554   2.9663   6.0672   6.0864   6.0864
     6.2235   6.2235   7.2205   7.2991   7.2991   8.2669   8.2669   8.3970
     8.6530   8.6530   9.1048   9.1048  13.4270  16.3130  16.3130  17.0000
    18.8123  18.9844  18.9844  19.7660

          k =-0.3000 0.3000-0.3000 (  2914 PWs)   bands (ev):

   -93.2651 -53.6557 -53.6555 -53.6555   3.5514   6.0359   6.0733   6.0733
     6.3423   6.3423   7.1287   7.3926   7.3926   8.1148   8.1148   8.1865
     8.6791   8.6791   9.1133   9.1133  11.5530  15.6177  15.6177  17.0569
    18.3033  18.6861  18.6861  21.0941

          k =-0.4000 0.4000-0.4000 (  2902 PWs)   bands (ev):

   -93.2650 -53.6555 -53.6555 -53.6555   4.1797   6.0569   6.0569   6.1025
     6.4627   6.4627   6.8861   7.4954   7.4954   7.9259   7.9259   8.0584
     8.7278   8.7278   9.1214   9.1214  10.1950  15.1500  15.1500  17.1093
    17.9518  18.4693  18.4693  22.8434

          k = 0.5000-0.5000 0.5000 (  2914 PWs)   bands (ev):

   -93.2651 -53.6556 -53.6555 -53.6555   4.4856   6.0501   6.0501   6.2482
     6.5156   6.5156   6.6388   7.5619   7.5619   7.8176   7.8176   8.0146
     8.7515   8.7515   9.1243   9.1243   9.6795  14.9836  14.9836  17.1375
    17.8197  18.3937  18.3937  23.7763

          k = 0.0000 0.2000 0.0000 (  2866 PWs)   bands (ev):

   -93.2648 -53.6553 -53.6553 -53.6553   2.6249   6.0309   6.1133   6.1163
     6.1716   6.1716   7.1435   7.2857   7.2857   8.3235   8.3373   8.6089
     8.6554   8.6554   9.0554   9.1343  16.2294  16.2294  16.2865  16.7969
    18.5631  18.9205  19.8360  19.8360

          k =-0.1000 0.3000-0.1000 (  2894 PWs)   bands (ev):

   -93.2650 -53.6556 -53.6555 -53.6554   2.9292   5.9789   6.1003   6.1450
     6.1860   6.2371   7.1155   7.3588   7.3777   8.2689   8.3094   8.4636
     8.6337   8.6421   9.0191   9.1504  14.1366  15.4048  15.9798  16.9923
    18.2501  19.0659  19.9174  19.9786

          k =-0.2000 0.4000-0.2000 (  2891 PWs)   bands (ev):

   -93.2650 -53.6555 -53.6554 -53.6554   3.4554   5.9126   6.1131   6.1261
     6.2393   6.3714   7.1265   7.3988   7.4864   8.1127   8.2183   8.2575
     8.6523   8.6663   9.0145   9.1607  12.1438  14.7856  15.3034  16.9052
    18.9439  19.1048  19.6375  19.7100

          k =-0.3000 0.5000-0.3000 (  2908 PWs)   bands (ev):

   -93.2651 -53.6556 -53.6555 -53.6555   4.0921   5.8826   6.0999   6.1406
     6.3253   6.5006   7.0856   7.4268   7.5881   7.9008   8.0562   8.1145
     8.6969   8.7157   9.0522   9.1577  10.5682  14.4548  14.6091  16.7885
    18.7788  19.2854  19.3283  20.7334

          k = 0.6000-0.4000 0.6000 (  2911 PWs)   bands (ev):

   -93.2651 -53.6555 -53.6555 -53.6555   4.5488   5.9074   6.0778   6.2180
     6.3606   6.5607   6.9648   7.5144   7.5917   7.8101   7.9047   8.0359
     8.7194   8.7568   9.1182   9.1278   9.7110  14.0871  14.4830  16.8149
    18.4854  18.9823  19.4410  22.4082

          k = 0.5000-0.3000 0.5000 (  2911 PWs)   bands (ev):

   -93.2651 -53.6555 -53.6555 -53.6555   4.4400   5.9333   6.0675   6.1686
     6.4037   6.5053   7.0161   7.4633   7.6084   7.8282   7.9396   8.0503
     8.6850   8.7764   9.0634   9.1664   9.9063  13.8570  14.8887  16.9880
    18.2379  18.7352  19.7724  22.5991

          k = 0.4000-0.2000 0.4000 (  2911 PWs)   bands (ev):

   -93.2651 -53.6556 -53.6555 -53.6555   3.8752   5.9417   6.0704   6.1200
     6.3709   6.3828   7.1628   7.3557   7.5568   7.9663   8.1136   8.1445
     8.6461   8.7383   9.0143   9.1786  11.0510  13.9547  15.6218  17.3030
    18.0970  18.6078  20.1509  20.9380

          k = 0.3000-0.1000 0.3000 (  2896 PWs)   bands (ev):

   -93.2650 -53.6556 -53.6554 -53.6554   3.2564   5.9884   6.0782   6.1247
     6.2392   6.2941   7.2178   7.2750   7.4554   8.1631   8.2546   8.3087
     8.6336   8.6714   9.0157   9.1656  12.7908  14.3325  16.5856  17.6498
    18.1487  18.5559  19.5337  20.2898

          k = 0.2000 0.0000 0.2000 (  2878 PWs)   bands (ev):

   -93.2649 -53.6555 -53.6554 -53.6553   2.7985   6.0616   6.0714   6.1233
     6.1737   6.2065   7.2097   7.2297   7.3434   8.2892   8.3193   8.4955
     8.6478   8.6552   9.0526   9.1395  14.8413  14.9406  17.5310  17.5684
    18.3224  18.6668  18.8414  19.6231

          k = 0.0000 0.4000 0.0000 (  2886 PWs)   bands (ev):

   -93.2649 -53.6556 -53.6554 -53.6554   3.1504   5.8546   6.0731   6.2021
     6.2021   6.3061   7.0138   7.4940   7.4940   8.2505   8.3071   8.4873
     8.5987   8.5987   8.9324   9.1625  14.5219  14.5219  14.7378  15.9261
    17.3936  20.5560  20.7356  20.7356

          k =-0.1000 0.5000-0.1000 (  2894 PWs)   bands (ev):

   -93.2650 -53.6556 -53.6554 -53.6554   3.6044   5.7397   6.0696   6.1998
     6.2171   6.4553   6.9939   7.5915   7.6152   8.1221   8.2632   8.3634
     8.6297   8.6300   8.8946   9.1690  12.7166  13.8362  14.1028  16.2028
    17.4648  20.7620  20.9489  21.1199

          k =-0.2000 0.6000-0.2000 (  2934 PWs)   bands (ev):

   -93.2653 -53.6557 -53.6556 -53.6556   4.2107   5.6628   6.1035   6.1753
     6.2289   6.6095   7.0452   7.6304   7.7215   7.8834   8.1556   8.2313
     8.6666   8.7000   8.9709   9.1737  11.0108  13.3212  13.4613  16.3266
    18.5862  20.3606  20.6795  21.2200

          k = 0.7000-0.3000 0.7000 (  2909 PWs)   bands (ev):

   -93.2651 -53.6555 -53.6555 -53.6554   4.7443   5.6657   6.1434   6.1614
     6.2277   6.6987   7.1424   7.6307   7.6421   7.8306   8.0425   8.1209
     8.6360   8.7944   9.1111   9.1691   9.8228  12.6557  13.4926  16.4098
    19.8546  20.1397  20.2499  21.5246

          k = 0.6000-0.2000 0.6000 (  2900 PWs)   bands (ev):

   -93.2650 -53.6555 -53.6554 -53.6554   4.8077   5.7634   6.1157   6.1348
     6.2756   6.6483   7.2736   7.4585   7.6516   7.9352   7.9566   8.0802
     8.5919   8.8040   9.0842   9.1985   9.7130  12.2395  13.9504  16.5922
    19.4485  19.8363  21.3042  22.4276

          k = 0.5000-0.1000 0.5000 (  2909 PWs)   bands (ev):

   -93.2651 -53.6555 -53.6555 -53.6554   4.3661   5.8234   6.0985   6.1038
     6.3394   6.4862   7.3195   7.3626   7.7200   7.8461   8.0978   8.1282
     8.5710   8.8098   8.9300   9.2209  10.6873  12.1656  14.7518  16.9035
    19.1619  19.4822  20.6741  21.7026

          k = 0.4000 0.0000 0.4000 (  2900 PWs)   bands (ev):

   -93.2650 -53.6556 -53.6555 -53.6554   3.7602   5.8909   6.0891   6.1216
     6.3254   6.3409   7.2767   7.3014   7.6196   7.9865   8.2061   8.2118
     8.5914   8.7533   8.9186   9.2043  12.1144  12.5753  15.7477  17.3570
    18.7679  19.0763  19.5917  20.6130

          k = 0.0000 0.6000 0.0000 (  2886 PWs)   bands (ev):

   -93.2649 -53.6555 -53.6554 -53.6554   3.9848   5.5869   6.0008   6.2427
     6.2427   6.6009   6.8966   7.7252   7.7252   8.0835   8.2626   8.4138
     8.6596   8.6596   8.7965   9.1721  12.5871  13.0334  13.0334  15.7063
    16.7819  21.9714  21.9714  22.6105

          k =-0.1000 0.7000-0.1000 (  2903 PWs)   bands (ev):

   -93.2651 -53.6556 -53.6554 -53.6554   4.5365   5.4823   5.9810   6.2435
     6.2471   6.7755   6.8758   7.7823   7.7832   7.9112   8.2186   8.3535
     8.6610   8.7903   8.9101   9.1954  11.3081  12.2660  12.5323  15.9388
    17.0496  22.0645  22.1955  23.2836

          k = 0.8000-0.2000 0.8000 (  2909 PWs)   bands (ev):

   -93.2651 -53.6555 -53.6555 -53.6554   5.0740   5.4724   6.0169   6.1928
     6.2153   6.9139   6.9614   7.5951   7.8343   7.9122   8.1358   8.2781
     8.5700   8.9365   9.1256   9.2817  10.0644  11.4668  12.4815  16.1218
    18.2775  21.5862  21.7687  23.4472

          k = 0.7000-0.1000 0.7000 (  2916 PWs)   bands (ev):

   -93.2652 -53.6556 -53.6555 -53.6554   5.1669   5.6856   6.0491   6.1277
     6.1747   6.8934   7.1714   7.4212   7.8775   7.9923   8.0629   8.1874
     8.4983   8.9119   9.2306   9.2634   9.6811  10.8927  12.9289  16.2875
    19.9466  21.1027  21.1640  22.6586

          k = 0.6000-0.0000 0.6000 (  2910 PWs)   bands (ev):

   -93.2651 -53.6555 -53.6555 -53.6554   4.8772   5.7637   6.0433   6.1344
     6.2444   6.6898   7.3651   7.3823   7.7479   7.9833   8.0598   8.1401
     8.4995   8.7696   9.0488   9.2448  10.4361  10.8356  13.7502  16.5389
    20.4356  20.5101  20.8777  22.1889

          k = 0.0000 0.8000 0.0000 (  2926 PWs)   bands (ev):

   -93.2652 -53.6556 -53.6555 -53.6555   5.0231   5.3662   5.9064   6.2781
     6.2781   6.6883   6.9652   7.7973   7.8189   7.8189   8.2314   8.3797
     8.7113   8.9824   8.9824   9.2446  10.7817  11.8608  11.8608  15.6117
    16.5204  23.5309  23.5309  24.7105

          k = 0.9000-0.1000 0.9000 (  2905 PWs)   bands (ev):

   -93.2651 -53.6555 -53.6555 -53.6554   5.3115   5.5496   5.9049   6.1856
     6.2708   6.6415   7.1450   7.5417   7.8447   7.8915   8.1977   8.3557
     8.6266   9.1368   9.1866   9.4084  10.0868  11.1099  11.6709  15.8473
    16.8830  23.3945  23.5295  24.9854

          k = 0.8000 0.0000 0.8000 (  2898 PWs)   bands (ev):

   -93.2650 -53.6555 -53.6554 -53.6553   5.3039   5.8518   5.9306   5.9780
     6.2308   6.8894   7.1867   7.3357   7.9114   7.9785   8.1332   8.2995
     8.5116   9.1432   9.2523   9.5278   9.8405  10.2896  12.0885  16.0708
    18.1839  22.4198  22.7985  23.3442

          k = 0.0000-1.0000 0.0000 (  2914 PWs)   bands (ev):

   -93.2651 -53.6556 -53.6555 -53.6555   5.2780   5.8129   5.9293   6.2453
     6.2922   6.2922   7.2623   7.5233   7.8263   7.8263   8.2181   8.3723
     8.6855   9.2475   9.2475   9.4902   9.8273  11.3294  11.3294  15.5869
    16.4504  24.7947  24.7947  25.2404

          k =-0.2000 0.4000 0.0000 (  2895 PWs)   bands (ev):

   -93.2650 -53.6556 -53.6555 -53.6554   3.3075   5.8821   6.1047   6.1590
     6.2019   6.3393   7.0905   7.4243   7.5178   8.1655   8.2775   8.3526
     8.6173   8.6558   8.9587   9.1710  13.3344  13.6754  15.6294  17.0361
    17.9936  19.3615  19.8562  20.9489

          k =-0.3000 0.5000-0.1000 (  2900 PWs)   bands (ev):

   -93.2650 -53.6556 -53.6554 -53.6554   3.8772   5.7993   6.1201   6.1440
     6.2454   6.4653   7.1293   7.4711   7.6438   7.9686   8.1885   8.2153
     8.6093   8.7397   8.9362   9.1891  11.6009  13.0995  14.7868  17.2239
    18.5012  19.1783  20.1229  21.3064

          k = 0.6000-0.4000 0.8000 (  2916 PWs)   bands (ev):

   -93.2652 -53.6555 -53.6555 -53.6555   4.4815   5.7634   6.1078   6.1587
     6.2910   6.5800   7.1821   7.4910   7.6913   7.8120   8.0560   8.1096
     8.6185   8.7969   9.0123   9.1917  10.1984  12.8938  14.0655  17.1577
    18.3925  20.0837  20.6538  21.1257

          k = 0.5000-0.3000 0.7000 (  2910 PWs)   bands (ev):

   -93.2651 -53.6555 -53.6555 -53.6554   4.7702   5.7679   6.0926   6.1969
     6.2906   6.6304   7.2077   7.5062   7.5989   7.8668   7.9609   8.0588
     8.6184   8.8345   9.0939   9.1782   9.6048  12.8820  13.7448  17.1294
    18.2952  20.4303  20.6471  22.2962

          k =-0.2000 0.6000 0.0000 (  2910 PWs)   bands (ev):

   -93.2651 -53.6556 -53.6555 -53.6554   4.1068   5.6218   6.0561   6.1955
     6.2389   6.6033   6.9864   7.6736   7.7384   7.9649   8.2215   8.3119
     8.6035   8.7480   8.8726   9.1832  11.9076  12.4816  13.4927  16.5681
    17.4510  20.3631  21.7516  22.4135

          k = 0.7000-0.3000 0.9000 (  2917 PWs)   bands (ev):

   -93.2652 -53.6556 -53.6555 -53.6555   4.6974   5.5583   6.0794   6.1502
     6.2571   6.7433   7.0569   7.7150   7.7375   7.8342   8.1446   8.2389
     8.5536   8.8672   8.9963   9.2181  10.5728  11.9346  12.8521  16.8829
    18.4553  19.7998  22.1007  22.6870

          k = 0.6000-0.2000 0.8000 (  2904 PWs)   bands (ev):

   -93.2651 -53.6555 -53.6554 -53.6554   5.0717   5.6023   6.0825   6.1243
     6.2588   6.8025   7.2098   7.5015   7.7883   7.8968   8.0803   8.1545
     8.4906   8.9554   9.1503   9.3033   9.5948  11.6097  12.7022  17.0578
    19.2756  20.1032  21.8470  22.3662

          k = 0.5000-0.1000 0.7000 (  2909 PWs)   bands (ev):

   -93.2651 -53.6555 -53.6554 -53.6554   4.9387   5.6744   6.0618   6.1508
     6.2612   6.7212   7.2909   7.4752   7.7324   7.9134   8.0974   8.1282
     8.4834   8.8798   9.0657   9.2486  10.0077  11.3647  13.1633  17.3491
    18.9027  20.4655  21.6363  21.9974

          k = 0.4000 0.0000 0.6000 (  2910 PWs)   bands (ev):

   -93.2651 -53.6555 -53.6555 -53.6554   4.4393   5.7108   6.1041   6.1460
     6.2640   6.5780   7.1996   7.5334   7.7483   7.8453   8.1479   8.1691
     8.5391   8.8536   8.8972   9.2239  11.0705  11.6015  13.9400  17.7707
    18.3540  19.3746  21.0179  22.4183

          k = 0.8000-0.2000 1.0000 (  2912 PWs)   bands (ev):

   -93.2651 -53.6556 -53.6555 -53.6554   5.0751   5.4036   5.9621   6.1821
     6.2874   6.8445   6.9483   7.6617   7.8313   7.8927   8.1883   8.3342
     8.5744   8.9962   9.0575   9.2750  10.5960  11.4802  11.8950  16.3502
    17.1803  21.5812  23.4270  24.4198

          k = 0.7000-0.1000 0.9000 (  2910 PWs)   bands (ev):

   -93.2651 -53.6555 -53.6555 -53.6554   5.3430   5.5633   6.0010   6.0400
     6.2901   6.9684   7.0646   7.4415   7.8674   7.9829   8.1356   8.2764
     8.4471   9.0802   9.2444   9.4980   9.8471  10.7335  11.7721  16.7408
    18.2981  20.9561  22.6848  23.5503

          k = 0.6000 0.0000 0.8000 (  2918 PWs)   bands (ev):

   -93.2652 -53.6555 -53.6555 -53.6554   5.2636   5.6853   5.9768   6.0877
     6.2626   6.9367   7.2214   7.3742   7.9007   7.9735   8.1180   8.1875
     8.3938   9.0211   9.2247   9.3168  10.1069  10.2644  12.3179  17.0149
    20.0134  20.1959  21.1796  22.7693

          k =-0.2000-1.0000 0.0000 (  2904 PWs)   bands (ev):

   -93.2651 -53.6555 -53.6554 -53.6554   5.3164   5.8749   5.9129   5.9409
     6.3073   6.6895   7.3032   7.3396   7.8348   7.9603   8.1783   8.3389
     8.5462   9.1706   9.2863   9.6511   9.7315  11.0115  11.2185  16.2892
    17.1031  22.5536  23.6554  24.5425

          k = 0.6000-0.2000 1.0000 (  2901 PWs)   bands (ev):

   -93.2650 -53.6555 -53.6554 -53.6554   5.1820   5.5140   6.0542   6.0780
     6.3054   6.8748   7.1463   7.5339   7.8435   7.8754   8.1324   8.2272
     8.4137   9.0085   9.1393   9.3186  10.2664  10.8181  12.0805  18.0380
    18.6213  19.3424  22.2134  23.0762

          k = 0.5000-0.1000 0.9000 (  2918 PWs)   bands (ev):

   -93.2652 -53.6556 -53.6555 -53.6554   5.3734   5.5487   5.9825   6.0789
     6.3265   6.9443   7.2576   7.3885   7.8867   7.9368   8.1133   8.1873
     8.3546   9.0592   9.2798   9.4954   9.7452  10.6642  11.6877  18.3697
    18.8122  20.2620  20.4317  23.4832

          k =-0.4000-1.0000 0.0000 (  2916 PWs)   bands (ev):

   -93.2651 -53.6555 -53.6554 -53.6554   5.4334   5.6329   5.9236   6.0295
     6.3449   7.0978   7.1122   7.3539   7.8587   8.0707   8.1420   8.1568
     8.3535   9.1041   9.3502   9.5585   9.9854  10.4534  11.0841  17.9511
    18.7584  20.1114  21.0338  24.2448

     the Fermi energy is     9.2630 ev

!    total energy              =   -1389.43561817 Ry

     total all-electron energy =    -43178.935399 Ry
     estimated scf accuracy    <       0.00000005 Ry
     smearing contrib. (-TS)   =      -0.00544096 Ry
     internal energy E=F+TS    =   -1389.43017721 Ry

     The total energy is F=E-TS. E is the sum of the following terms:
     one-electron contribution =    -313.59960146 Ry
     hartree contribution      =     190.13303565 Ry
     xc contribution           =    -102.52391905 Ry
     ewald contribution        =    -297.84271191 Ry
     one-center paw contrib.   =    -865.59698044 Ry

     convergence has been achieved in  15 iterations

     Writing output data file ././cunipt.save/

     init_run     :      3.50s CPU      3.59s WALL (       1 calls)
     electrons    :    138.81s CPU    140.63s WALL (       1 calls)

     Called by init_run:
     wfcinit      :      2.41s CPU      2.44s WALL (       1 calls)
     potinit      :      0.34s CPU      0.35s WALL (       1 calls)
     hinit0       :      0.67s CPU      0.67s WALL (       1 calls)

     Called by electrons:
     c_bands      :    115.09s CPU    115.32s WALL (      15 calls)
     sum_band     :     17.20s CPU     18.08s WALL (      15 calls)
     v_of_rho     :      0.33s CPU      0.33s WALL (      16 calls)
     newd         :      1.08s CPU      1.82s WALL (      16 calls)
     PAW_pot      :      5.43s CPU      5.45s WALL (      16 calls)
     mix_rho      :      0.06s CPU      0.06s WALL (      15 calls)

     Called by c_bands:
     init_us_2    :      1.38s CPU      1.39s WALL (    1457 calls)
     cegterg      :    110.24s CPU    110.45s WALL (     705 calls)

     Called by *egterg:
     cdiaghg      :      2.07s CPU      2.07s WALL (    2663 calls)
     h_psi        :     64.24s CPU     64.41s WALL (    2710 calls)
     s_psi        :     10.22s CPU     10.24s WALL (    2710 calls)
     g_psi        :      0.39s CPU      0.39s WALL (    1958 calls)

     Called by h_psi:
     h_psi:calbec :      9.46s CPU      9.48s WALL (    2710 calls)
     vloc_psi     :     44.23s CPU     44.37s WALL (    2710 calls)
     add_vuspsi   :     10.24s CPU     10.25s WALL (    2710 calls)

     General routines
     calbec       :     13.33s CPU     13.35s WALL (    3415 calls)
     fft          :      0.15s CPU      0.15s WALL (     176 calls)
     ffts         :      0.01s CPU      0.01s WALL (      15 calls)
     fftw         :     48.21s CPU     48.35s WALL (  115508 calls)

     Parallel routines

     PWSCF        :   2m22.55s CPU   2m24.49s WALL


   This run was terminated on:  21: 0:54  13Sep2024            

=------------------------------------------------------------------------------=
   JOB DONE.
=------------------------------------------------------------------------------=
