
     Program PWSCF v.6.7MaX starts on 13Sep2024 at 21: 8:55 

     This program is part of the open-source Quantum ESPRESSO suite
     for quantum simulation of materials; please cite
         "P. Giannozzi et al., J. Phys.:Condens. Matter 21 395502 (2009);
         "P. Giannozzi et al., J. Phys.:Condens. Matter 29 465901 (2017);
          URL http://www.quantum-espresso.org", 
     in publications or presentations arising from this work. More details at
     http://www.quantum-espresso.org/quote

     Parallel version (MPI), running on     1 processors

     MPI processes distributed on     1 nodes
     Waiting for input...
     Reading input from standard input

     Current dimensions of program PWSCF are:
     Max number of different atomic species (ntypx) = 10
     Max number of k-points (npk) =  40000
     Max angular momentum in pseudopotentials (lmaxx) =  3
     file Cu.upf: wavefunction(s)  4S 3D renormalized
     file Ni.upf: wavefunction(s)  3P 3D renormalized
     file Pt.upf: wavefunction(s)  6S 5D renormalized

     Subspace diagonalization in iterative solution of the eigenvalue problem:
     a serial algorithm will be used


     G-vector sticks info
     --------------------
     sticks:   dense  smooth     PW     G-vecs:    dense   smooth      PW
     Sum        1159    1159    349                25821    25821    4279



     bravais-lattice index     =            2
     lattice parameter (alat)  =      11.8000  a.u.
     unit-cell volume          =     410.7580 (a.u.)^3
     number of atoms/cell      =            3
     number of atomic types    =            3
     number of electrons       =        39.00
     number of Kohn-Sham states=           28
     kinetic-energy cutoff     =      60.0000  Ry
     charge density cutoff     =     240.0000  Ry
     scf convergence threshold =      1.0E-07
     mixing beta               =       0.7000
     number of iterations used =            8  plain     mixing
     Exchange-correlation= SLA  PW   PBX  PBC
                           (   1   4   3   4   0   0   0)

     celldm(1)=  11.800000  celldm(2)=   0.000000  celldm(3)=   0.000000
     celldm(4)=   0.000000  celldm(5)=   0.000000  celldm(6)=   0.000000

     crystal axes: (cart. coord. in units of alat)
               a(1) = (  -0.500000   0.000000   0.500000 )  
               a(2) = (   0.000000   0.500000   0.500000 )  
               a(3) = (  -0.500000   0.500000   0.000000 )  

     reciprocal axes: (cart. coord. in units 2 pi/alat)
               b(1) = ( -1.000000 -1.000000  1.000000 )  
               b(2) = (  1.000000  1.000000  1.000000 )  
               b(3) = ( -1.000000  1.000000 -1.000000 )  


     PseudoPot. # 1 for Cu read from file:
     ././Cu.upf
     MD5 check sum: cfffd1f38ee05704b3e17f46f1730a6f
     Pseudo is Projector augmented-wave + core cor, Zval = 11.0
     Generated using &quot;atomic&quot; code by A. Dal Corso  v.6.3
     Shape of augmentation charge: PSQ
     Using radial grid of 1199 points,  6 beta functions with: 
                l(1) =   0
                l(2) =   0
                l(3) =   1
                l(4) =   1
                l(5) =   2
                l(6) =   2
     Q(r) pseudized with 0 coefficients 


     PseudoPot. # 2 for Ni read from file:
     ././Ni.upf
     MD5 check sum: 6e86b733589c3ad8389697b807d86aa7
     Pseudo is Projector augmented-wave + core cor, Zval = 18.0
     Generated using &quot;atomic&quot; code by A. Dal Corso  v.6.3
     Shape of augmentation charge: PSQ
     Using radial grid of 1195 points,  6 beta functions with: 
                l(1) =   0
                l(2) =   0
                l(3) =   1
                l(4) =   1
                l(5) =   2
                l(6) =   2
     Q(r) pseudized with 0 coefficients 


     PseudoPot. # 3 for Pt read from file:
     ././Pt.upf
     MD5 check sum: c5224e9cd7a5e36e81f2def9f50bb494
     Pseudo is Projector augmented-wave + core cor, Zval = 10.0
     Generated using &quot;atomic&quot; code by A. Dal Corso  v.6.3
     Shape of augmentation charge: PSQ
     Using radial grid of 1277 points,  6 beta functions with: 
                l(1) =   0
                l(2) =   0
                l(3) =   1
                l(4) =   1
                l(5) =   2
                l(6) =   2
     Q(r) pseudized with 0 coefficients 


     atomic species   valence    mass     pseudopotential
        Cu            11.00    63.54600     Cu( 1.00)
        Ni            18.00    58.69300     Ni( 1.00)
        Pt            10.00   195.08000     Pt( 1.00)

     24 Sym. Ops. (no inversion) found



   Cartesian axes

     site n.     atom                  positions (alat units)
         1           Cu  tau(   1) = (   0.0000000   0.0000000   0.0000000  )
         2           Ni  tau(   2) = (   0.5000000   0.5000000   0.5000000  )
         3           Pt  tau(   3) = (   0.2500000   0.2500000   0.2500000  )

     number of k points=    47  Gaussian smearing, width (Ry)=  0.0100
                       cart. coord. in units 2pi/alat
        k(    1) = (   0.0000000   0.0000000   0.0000000), wk =   0.0020000
        k(    2) = (  -0.1000000   0.1000000  -0.1000000), wk =   0.0160000
        k(    3) = (  -0.2000000   0.2000000  -0.2000000), wk =   0.0160000
        k(    4) = (  -0.3000000   0.3000000  -0.3000000), wk =   0.0160000
        k(    5) = (  -0.4000000   0.4000000  -0.4000000), wk =   0.0160000
        k(    6) = (   0.5000000  -0.5000000   0.5000000), wk =   0.0080000
        k(    7) = (   0.0000000   0.2000000   0.0000000), wk =   0.0120000
        k(    8) = (  -0.1000000   0.3000000  -0.1000000), wk =   0.0480000
        k(    9) = (  -0.2000000   0.4000000  -0.2000000), wk =   0.0480000
        k(   10) = (  -0.3000000   0.5000000  -0.3000000), wk =   0.0480000
        k(   11) = (   0.6000000  -0.4000000   0.6000000), wk =   0.0480000
        k(   12) = (   0.5000000  -0.3000000   0.5000000), wk =   0.0480000
        k(   13) = (   0.4000000  -0.2000000   0.4000000), wk =   0.0480000
        k(   14) = (   0.3000000  -0.1000000   0.3000000), wk =   0.0480000
        k(   15) = (   0.2000000   0.0000000   0.2000000), wk =   0.0240000
        k(   16) = (   0.0000000   0.4000000   0.0000000), wk =   0.0120000
        k(   17) = (  -0.1000000   0.5000000  -0.1000000), wk =   0.0480000
        k(   18) = (  -0.2000000   0.6000000  -0.2000000), wk =   0.0480000
        k(   19) = (   0.7000000  -0.3000000   0.7000000), wk =   0.0480000
        k(   20) = (   0.6000000  -0.2000000   0.6000000), wk =   0.0480000
        k(   21) = (   0.5000000  -0.1000000   0.5000000), wk =   0.0480000
        k(   22) = (   0.4000000   0.0000000   0.4000000), wk =   0.0240000
        k(   23) = (   0.0000000   0.6000000   0.0000000), wk =   0.0120000
        k(   24) = (  -0.1000000   0.7000000  -0.1000000), wk =   0.0480000
        k(   25) = (   0.8000000  -0.2000000   0.8000000), wk =   0.0480000
        k(   26) = (   0.7000000  -0.1000000   0.7000000), wk =   0.0480000
        k(   27) = (   0.6000000  -0.0000000   0.6000000), wk =   0.0240000
        k(   28) = (   0.0000000   0.8000000   0.0000000), wk =   0.0120000
        k(   29) = (   0.9000000  -0.1000000   0.9000000), wk =   0.0480000
        k(   30) = (   0.8000000   0.0000000   0.8000000), wk =   0.0240000
        k(   31) = (   0.0000000  -1.0000000   0.0000000), wk =   0.0060000
        k(   32) = (  -0.2000000   0.4000000   0.0000000), wk =   0.0480000
        k(   33) = (  -0.3000000   0.5000000  -0.1000000), wk =   0.0960000
        k(   34) = (   0.6000000  -0.4000000   0.8000000), wk =   0.0960000
        k(   35) = (   0.5000000  -0.3000000   0.7000000), wk =   0.0480000
        k(   36) = (  -0.2000000   0.6000000   0.0000000), wk =   0.0480000
        k(   37) = (   0.7000000  -0.3000000   0.9000000), wk =   0.0960000
        k(   38) = (   0.6000000  -0.2000000   0.8000000), wk =   0.0960000
        k(   39) = (   0.5000000  -0.1000000   0.7000000), wk =   0.0960000
        k(   40) = (   0.4000000   0.0000000   0.6000000), wk =   0.0480000
        k(   41) = (   0.8000000  -0.2000000   1.0000000), wk =   0.0480000
        k(   42) = (   0.7000000  -0.1000000   0.9000000), wk =   0.0960000
        k(   43) = (   0.6000000   0.0000000   0.8000000), wk =   0.0480000
        k(   44) = (  -0.2000000  -1.0000000   0.0000000), wk =   0.0240000
        k(   45) = (   0.6000000  -0.2000000   1.0000000), wk =   0.0480000
        k(   46) = (   0.5000000  -0.1000000   0.9000000), wk =   0.0480000
        k(   47) = (  -0.4000000  -1.0000000   0.0000000), wk =   0.0240000

     Dense  grid:    25821 G-vectors     FFT dimensions: (  45,  45,  45)

     Estimated max dynamical RAM per process >     164.75 MB

     Check: negative core charge=   -0.000003

     Initial potential from superposition of free atoms

     starting charge   38.99935, renormalised to   39.00000
     Starting wfcs are   28 randomized atomic wfcs
     Checking if some PAW data can be deallocated... 

     total cpu time spent up to now is        4.7 secs

     Self-consistent Calculation

     iteration #  1     ecut=    60.00 Ry     beta= 0.70
     Davidson diagonalization with overlap
     ethr =  1.00E-02,  avg # of iterations =  6.3

     total cpu time spent up to now is       19.8 secs

     total energy              =   -1387.75238607 Ry
     estimated scf accuracy    <       2.08928914 Ry

     iteration #  2     ecut=    60.00 Ry     beta= 0.70
     Davidson diagonalization with overlap
     ethr =  5.36E-03,  avg # of iterations =  3.6

     total cpu time spent up to now is       36.0 secs

     total energy              =   -1386.16433690 Ry
     estimated scf accuracy    <      60.75760881 Ry

     iteration #  3     ecut=    60.00 Ry     beta= 0.70
     Davidson diagonalization with overlap
     ethr =  5.36E-03,  avg # of iterations =  4.4

     total cpu time spent up to now is       51.3 secs

     total energy              =   -1389.34351094 Ry
     estimated scf accuracy    <       0.76056658 Ry

     iteration #  4     ecut=    60.00 Ry     beta= 0.70
     Davidson diagonalization with overlap
     ethr =  1.95E-03,  avg # of iterations =  1.0

     total cpu time spent up to now is       61.1 secs

     total energy              =   -1389.38329423 Ry
     estimated scf accuracy    <       0.13755975 Ry

     iteration #  5     ecut=    60.00 Ry     beta= 0.70
     Davidson diagonalization with overlap
     ethr =  3.53E-04,  avg # of iterations =  1.6

     total cpu time spent up to now is       71.3 secs

     total energy              =   -1389.38678203 Ry
     estimated scf accuracy    <       0.02540576 Ry

     iteration #  6     ecut=    60.00 Ry     beta= 0.70
     Davidson diagonalization with overlap
     ethr =  6.51E-05,  avg # of iterations =  3.1

     total cpu time spent up to now is       83.3 secs

     total energy              =   -1389.38917009 Ry
     estimated scf accuracy    <       0.01228030 Ry

     iteration #  7     ecut=    60.00 Ry     beta= 0.70
     Davidson diagonalization with overlap
     ethr =  3.15E-05,  avg # of iterations =  2.3

     total cpu time spent up to now is       94.1 secs

     total energy              =   -1389.39002879 Ry
     estimated scf accuracy    <       0.01428251 Ry

     iteration #  8     ecut=    60.00 Ry     beta= 0.70
     Davidson diagonalization with overlap
     ethr =  3.15E-05,  avg # of iterations =  1.1

     total cpu time spent up to now is      103.9 secs

     total energy              =   -1389.39128447 Ry
     estimated scf accuracy    <       0.00336741 Ry

     iteration #  9     ecut=    60.00 Ry     beta= 0.70
     Davidson diagonalization with overlap
     ethr =  8.63E-06,  avg # of iterations =  2.9

     total cpu time spent up to now is      114.6 secs

     total energy              =   -1389.39159475 Ry
     estimated scf accuracy    <       0.00010974 Ry

     iteration # 10     ecut=    60.00 Ry     beta= 0.70
     Davidson diagonalization with overlap
     ethr =  2.81E-07,  avg # of iterations =  5.6

     total cpu time spent up to now is      131.4 secs

     total energy              =   -1389.39167585 Ry
     estimated scf accuracy    <       0.00004035 Ry

     iteration # 11     ecut=    60.00 Ry     beta= 0.70
     Davidson diagonalization with overlap
     ethr =  1.03E-07,  avg # of iterations =  1.3

     total cpu time spent up to now is      141.3 secs

     total energy              =   -1389.39166895 Ry
     estimated scf accuracy    <       0.00002553 Ry

     iteration # 12     ecut=    60.00 Ry     beta= 0.70
     Davidson diagonalization with overlap
     ethr =  6.55E-08,  avg # of iterations =  1.2

     total cpu time spent up to now is      151.1 secs

     total energy              =   -1389.39167098 Ry
     estimated scf accuracy    <       0.00000160 Ry

     iteration # 13     ecut=    60.00 Ry     beta= 0.70
     Davidson diagonalization with overlap
     ethr =  4.10E-09,  avg # of iterations =  3.6

     total cpu time spent up to now is      164.0 secs

     total energy              =   -1389.39167089 Ry
     estimated scf accuracy    <       0.00000305 Ry

     iteration # 14     ecut=    60.00 Ry     beta= 0.70
     Davidson diagonalization with overlap
     ethr =  4.10E-09,  avg # of iterations =  2.0

     total cpu time spent up to now is      175.4 secs

     total energy              =   -1389.39167098 Ry
     estimated scf accuracy    <       0.00000023 Ry

     iteration # 15     ecut=    60.00 Ry     beta= 0.70
     Davidson diagonalization with overlap
     ethr =  5.80E-10,  avg # of iterations =  4.3

     total cpu time spent up to now is      191.9 secs

     total energy              =   -1389.39167106 Ry
     estimated scf accuracy    <       0.00000022 Ry

     iteration # 16     ecut=    60.00 Ry     beta= 0.70
     Davidson diagonalization with overlap
     ethr =  5.57E-10,  avg # of iterations =  1.3

     total cpu time spent up to now is      201.8 secs

     End of self-consistent calculation

          k = 0.0000 0.0000 0.0000 (  3215 PWs)   bands (ev):

   -94.5958 -54.9887 -54.9887 -54.9887   1.6132   5.0397   5.0397   5.1106
     5.1106   5.1106   6.0155   6.0155   6.0155   6.9661   6.9661   7.3066
     7.3066   7.3066   7.6526   7.6526  14.4215  15.9927  15.9927  15.9927
    16.1027  16.1027  16.1027  16.8480

          k =-0.1000 0.1000-0.1000 (  3215 PWs)   bands (ev):

   -94.5958 -54.9888 -54.9887 -54.9887   1.7359   5.0521   5.0521   5.0819
     5.1209   5.1209   6.0258   6.0352   6.0352   6.9587   6.9587   7.2358
     7.2906   7.2906   7.6529   7.6529  13.5912  14.8014  15.1843  15.1843
    16.7698  16.8433  16.8433  17.4504

          k =-0.2000 0.2000-0.2000 (  3263 PWs)   bands (ev):

   -94.5962 -54.9891 -54.9889 -54.9889   2.0915   5.0226   5.0556   5.0556
     5.1814   5.1814   6.0280   6.0900   6.0900   6.9112   6.9112   7.0631
     7.2696   7.2696   7.6562   7.6562  11.6292  14.4137  14.4137  14.7992
    16.8016  16.9502  16.9503  17.6019

          k =-0.3000 0.3000-0.3000 (  3230 PWs)   bands (ev):

   -94.5959 -54.9889 -54.9889 -54.9889   2.6323   4.9882   5.0418   5.0418
     5.2867   5.2867   5.9576   6.1690   6.1690   6.7889   6.7889   6.8802
     7.2887   7.2887   7.6624   7.6624   9.8879  13.7888  13.7888  14.9001
    16.2277  16.6744  16.6744  18.8373

          k =-0.4000 0.4000-0.4000 (  3220 PWs)   bands (ev):

   -94.5959 -54.9890 -54.9888 -54.9888   3.2168   5.0277   5.0277   5.0398
     5.3893   5.3893   5.7616   6.2601   6.2601   6.6282   6.6282   6.7553
     7.3316   7.3316   7.6666   7.6666   8.6254  13.3727  13.3727  15.0374
    15.7803  16.4566  16.4566  20.4745

          k = 0.5000-0.5000 0.5000 (  3214 PWs)   bands (ev):

   -94.5958 -54.9890 -54.9888 -54.9888   3.5041   5.0220   5.0220   5.1620
     5.4337   5.4337   5.5539   6.3231   6.3231   6.5310   6.5310   6.7050
     7.3531   7.3531   7.6676   7.6676   8.1494  13.2255  13.2255  15.1415
    15.5702  16.3793  16.3793  21.5909

          k = 0.0000 0.2000 0.0000 (  3219 PWs)   bands (ev):

   -94.5959 -54.9889 -54.9888 -54.9888   1.7773   5.0083   5.0837   5.0957
     5.1200   5.1200   5.9580   6.0814   6.0814   6.9488   6.9676   7.2308
     7.2817   7.2817   7.6140   7.6798  14.0944  14.3336  14.3336  14.7375
    16.6828  16.8436  17.7115  17.7117

          k =-0.1000 0.3000-0.1000 (  3230 PWs)   bands (ev):

   -94.5959 -54.9889 -54.9888 -54.9888   2.0574   4.9499   5.0765   5.1038
     5.1396   5.1929   5.9321   6.1436   6.1588   6.9062   6.9526   7.1108
     7.2615   7.2629   7.5849   7.6942  12.3042  13.5819  13.9113  14.9366
    16.4200  16.9143  17.8192  17.9353

          k =-0.2000 0.4000-0.2000 (  3224 PWs)   bands (ev):

   -94.5959 -54.9889 -54.9889 -54.9888   2.5430   4.8860   5.0766   5.0858
     5.1978   5.3103   5.9421   6.1793   6.2508   6.7821   6.8833   6.9381
     7.2624   7.2860   7.5807   7.7034  10.4484  13.0239  13.3537  14.9355
    16.7314  17.1228  17.5433  17.6581

          k =-0.3000 0.5000-0.3000 (  3224 PWs)   bands (ev):

   -94.5959 -54.9890 -54.9889 -54.9888   3.1344   4.8577   5.0634   5.0915
     5.2763   5.4208   5.9185   6.2041   6.3410   6.6042   6.7507   6.8039
     7.3011   7.3258   7.6099   7.7002   8.9802  12.7322  12.7652  14.8533
    16.4885  17.2679  17.2737  18.5816

          k = 0.6000-0.4000 0.6000 (  3223 PWs)   bands (ev):

   -94.5959 -54.9891 -54.9889 -54.9888   3.5629   4.8846   5.0445   5.1405
     5.3146   5.4733   5.8272   6.2796   6.3465   6.5272   6.6142   6.7244
     7.3262   7.3566   7.6638   7.6746   8.1822  12.3105  12.7649  14.9034
    16.1923  16.9358  17.3762  20.1723

          k = 0.5000-0.3000 0.5000 (  3216 PWs)   bands (ev):

   -94.5958 -54.9890 -54.9889 -54.9888   3.4607   4.9056   5.0351   5.1031
     5.3465   5.4294   5.8698   6.2282   6.3659   6.5414   6.6457   6.7423
     7.2919   7.3766   7.6197   7.7052   8.3631  12.1032  13.1352  15.0964
    15.9490  16.7024  17.6715  20.2999

          k = 0.4000-0.2000 0.4000 (  3228 PWs)   bands (ev):

   -94.5959 -54.9890 -54.9889 -54.9888   2.9326   4.9073   5.0367   5.0761
     5.3169   5.3218   5.9836   6.1331   6.3192   6.6601   6.7956   6.8395
     7.2540   7.3464   7.5788   7.7175   9.4291  12.1801  13.7984  15.4066
    15.8303  16.5860  18.0399  18.7231

          k = 0.3000-0.1000 0.3000 (  3232 PWs)   bands (ev):

   -94.5960 -54.9889 -54.9889 -54.9888   2.3592   4.9519   5.0436   5.0863
     5.2027   5.2417   6.0226   6.0656   6.2295   6.8229   6.9101   6.9865
     7.2438   7.2921   7.5810   7.7078  11.0506  12.5040  14.6694  15.5583
    16.0856  16.5227  17.4100  18.3661

          k = 0.2000 0.0000 0.2000 (  3237 PWs)   bands (ev):

   -94.5960 -54.9890 -54.9888 -54.9888   1.9370   5.0217   5.0451   5.0918
     5.1369   5.1590   6.0156   6.0302   6.1316   6.9238   6.9552   7.1433
     7.2692   7.2752   7.6118   7.6854  12.9623  13.0349  15.3653  15.5553
    16.2651  16.5653  16.9018  17.7539

          k = 0.0000 0.4000 0.0000 (  3219 PWs)   bands (ev):

   -94.5959 -54.9889 -54.9888 -54.9888   2.2608   4.8376   5.0659   5.1455
     5.1455   5.2582   5.8426   6.2570   6.2570   6.8866   6.9617   7.1037
     7.2423   7.2423   7.5139   7.7040  12.7772  12.7772  12.8027  13.7514
    15.6190  18.3052  18.6898  18.6899

          k =-0.1000 0.5000-0.1000 (  3228 PWs)   bands (ev):

   -94.5959 -54.9889 -54.9889 -54.9888   2.6798   4.7329   5.0638   5.1447
     5.1596   5.3842   5.8235   6.3395   6.3586   6.7849   6.9344   7.0029
     7.2576   7.2670   7.4827   7.7105  11.0116  12.1586  12.2693  14.1014
    15.6205  18.6017  18.8530  18.8656

          k =-0.2000 0.6000-0.2000 (  3209 PWs)   bands (ev):

   -94.5958 -54.9889 -54.9888 -54.9888   3.2429   4.6619   5.0883   5.1248
     5.1719   5.5149   5.8672   6.3782   6.4511   6.5897   6.8493   6.8905
     7.2909   7.3118   7.5458   7.7163   9.4204  11.5546  11.8273  14.3128
    16.5897  18.1322  18.5581  18.9923

          k = 0.7000-0.3000 0.7000 (  3221 PWs)   bands (ev):

   -94.5959 -54.9890 -54.9889 -54.9889   3.7448   4.6629   5.0978   5.1115
     5.1884   5.5926   5.9561   6.3740   6.4012   6.5506   6.7472   6.7925
     7.2584   7.3972   7.6606   7.7177   8.3049  10.9516  11.8631  14.4267
    17.6123  18.0497  18.1357  19.2680

          k = 0.6000-0.2000 0.6000 (  3209 PWs)   bands (ev):

   -94.5958 -54.9890 -54.9888 -54.9888   3.8090   4.7486   5.0640   5.0736
     5.2470   5.5557   6.0792   6.2191   6.4028   6.6537   6.6669   6.7626
     7.2126   7.4040   7.6502   7.7329   8.1944  10.5709  12.2797  14.6225
    17.2196  17.7412  19.1431  20.0949

          k = 0.5000-0.1000 0.5000 (  3212 PWs)   bands (ev):

   -94.5958 -54.9890 -54.9888 -54.9888   3.3914   4.7986   5.0537   5.0579
     5.2931   5.4216   6.1107   6.1335   6.4623   6.5651   6.7915   6.8217
     7.1863   7.4082   7.5141   7.7529   9.1108  10.4910  13.0056  14.9414
    16.9415  17.4020  18.4906  19.5877

          k = 0.4000 0.0000 0.4000 (  3246 PWs)   bands (ev):

   -94.5960 -54.9890 -54.9889 -54.9889   2.8255   4.8613   5.0492   5.0793
     5.2834   5.2863   6.0687   6.0837   6.3789   6.6748   6.8793   6.9012
     7.2015   7.3659   7.4981   7.7402  10.4611  10.8366  13.9103  15.3990
    16.5434  17.0014  17.4710  18.5966

          k = 0.0000 0.6000 0.0000 (  3238 PWs)   bands (ev):

   -94.5960 -54.9889 -54.9889 -54.9889   3.0306   4.5961   5.0103   5.1794
     5.1794   5.5093   5.7372   6.4494   6.4494   6.7489   6.9362   7.0222
     7.3044   7.3044   7.4004   7.7126  10.8294  11.4355  11.4355  13.5256
    14.9751  19.8192  19.8192  20.2324

          k =-0.1000 0.7000-0.1000 (  3222 PWs)   bands (ev):

   -94.5959 -54.9889 -54.9889 -54.9888   3.5429   4.5012   4.9951   5.1802
     5.1804   5.6568   5.7172   6.4998   6.5007   6.6096   6.8947   6.9785
     7.2923   7.4091   7.5021   7.7344   9.6966  10.6551  10.9932  13.8078
    15.1788  19.8193  19.9919  20.8827

          k = 0.8000-0.2000 0.8000 (  3222 PWs)   bands (ev):

   -94.5959 -54.9890 -54.9889 -54.9889   4.0531   4.4867   5.0248   5.1228
     5.1569   5.7751   5.7928   6.3448   6.5534   6.6160   6.8198   6.9185
     7.2095   7.5309   7.6750   7.8166   8.5718   9.8680  10.9566  14.0721
    16.2707  19.3112  19.5735  21.0886

          k = 0.7000-0.1000 0.7000 (  3223 PWs)   bands (ev):

   -94.5959 -54.9891 -54.9890 -54.9889   4.1648   4.6661   4.9775   5.1224
     5.1241   5.7663   5.9783   6.1867   6.5952   6.6958   6.7642   6.8434
     7.1392   7.5160   7.7593   7.8324   8.1808   9.3166  11.3600  14.2721
    17.8222  18.8400  19.0003  20.3895

          k = 0.6000-0.0000 0.6000 (  3214 PWs)   bands (ev):

   -94.5958 -54.9890 -54.9890 -54.9888   3.8791   4.7407   4.9836   5.0878
     5.2218   5.5977   6.1473   6.1494   6.4692   6.7067   6.7627   6.8226
     7.1287   7.3793   7.6232   7.7719   8.9127   9.2279  12.0981  14.5462
    18.2360  18.3070  18.6820  20.0027

          k = 0.0000 0.8000 0.0000 (  3218 PWs)   bands (ev):

   -94.5959 -54.9889 -54.9889 -54.9889   3.9951   4.3968   4.9323   5.2087
     5.2087   5.5480   5.8171   6.5156   6.5313   6.5313   6.8973   6.9978
     7.3256   7.5688   7.5688   7.7762   9.1670  10.4043  10.4043  13.4247
    14.6815  21.2166  21.2166  22.2092

          k = 0.9000-0.1000 0.9000 (  3238 PWs)   bands (ev):

   -94.5960 -54.9892 -54.9890 -54.9889   4.3442   4.4925   4.9310   5.1110
     5.2028   5.5103   5.9673   6.3045   6.5579   6.5949   6.8639   6.9792
     7.2567   7.6877   7.7250   7.9210   8.5435   9.6832  10.2479  13.7022
    14.9931  21.1010  21.1482  22.5471

          k = 0.8000 0.0000 0.8000 (  3220 PWs)   bands (ev):

   -94.5959 -54.9891 -54.9889 -54.9889   4.3290   4.8090   4.8389   5.0009
     5.1693   5.7312   6.0152   6.1171   6.6245   6.6738   6.8090   6.9291
     7.1595   7.6915   7.7759   8.0660   8.3142   8.8569  10.6154  14.0089
    16.1713  20.1915  20.4169  21.0544

          k = 0.0000-1.0000 0.0000 (  3250 PWs)   bands (ev):

   -94.5961 -54.9892 -54.9890 -54.9890   4.3182   4.7831   4.8989   5.1445
     5.2204   5.2204   6.0624   6.2938   6.5402   6.5402   6.8785   6.9945
     7.3020   7.7708   7.7708   7.9981   8.2867   9.9591   9.9591  13.3959
    14.5989  22.2983  22.2983  23.0691

          k =-0.2000 0.4000 0.0000 (  3234 PWs)   bands (ev):

   -94.5960 -54.9890 -54.9889 -54.9889   2.4061   4.8600   5.0786   5.1118
     5.1593   5.2837   5.9081   6.1958   6.2816   6.8225   6.9360   7.0134
     7.2348   7.2839   7.5342   7.7124  11.5921  11.8771  13.7461  14.9123
    16.1779  17.2222  17.6755  18.8770

          k =-0.3000 0.5000-0.1000 (  3230 PWs)   bands (ev):

   -94.5959 -54.9889 -54.9889 -54.9889   2.9336   4.7829   5.0834   5.0962
     5.2065   5.3937   5.9398   6.2362   6.3934   6.6605   6.8726   6.8904
     7.2242   7.3525   7.5142   7.7280   9.9611  11.3707  12.9911  15.2046
    16.4862  17.0523  17.9657  19.1356

          k = 0.6000-0.4000 0.8000 (  3221 PWs)   bands (ev):

   -94.5959 -54.9890 -54.9889 -54.9888   3.4985   4.7498   5.0637   5.1050
     5.2525   5.4927   5.9916   6.2609   6.4336   6.5326   6.7568   6.7931
     7.2359   7.3955   7.5803   7.7296   8.6489  11.1867  12.3509  15.2250
    16.2156  17.9540  18.5061  18.9037

          k = 0.5000-0.3000 0.7000 (  3218 PWs)   bands (ev):

   -94.5959 -54.9891 -54.9889 -54.9888   3.7719   4.7563   5.0466   5.1255
     5.2614   5.5353   6.0273   6.2702   6.3539   6.5881   6.6677   6.7420
     7.2373   7.4284   7.6524   7.7192   8.0895  11.1678  12.0755  15.2272
    16.0859  18.2382  18.5262  19.9889

          k =-0.2000 0.6000 0.0000 (  3229 PWs)   bands (ev):

   -94.5959 -54.9889 -54.9889 -54.9889   3.1450   4.6259   5.0547   5.1365
     5.1802   5.5109   5.8147   6.4057   6.4668   6.6561   6.9024   6.9556
     7.2363   7.3697   7.4619   7.7238  10.2649  10.8292  11.8007  14.4349
    15.6045  18.1921  19.5720  20.0868

          k = 0.7000-0.3000 0.9000 (  3217 PWs)   bands (ev):

   -94.5959 -54.9890 -54.9888 -54.9888   3.6976   4.5668   5.0738   5.0895
     5.1993   5.6309   5.8746   6.4451   6.4677   6.5551   6.8334   6.8956
     7.1915   7.4636   7.5692   7.7555   9.0303  10.2992  11.2351  14.8254
    16.4788  17.6173  19.9310  20.3113

          k = 0.6000-0.2000 0.8000 (  3220 PWs)   bands (ev):

   -94.5959 -54.9891 -54.9889 -54.9889   4.0595   4.6031   5.0150   5.1055
     5.2101   5.6832   6.0100   6.2613   6.5237   6.6190   6.7700   6.8254
     7.1301   7.5396   7.7012   7.8498   8.1017   9.9802  11.1173  15.0461
    17.1189  17.9787  19.6660  20.1321

          k = 0.5000-0.1000 0.7000 (  3221 PWs)   bands (ev):

   -94.5959 -54.9890 -54.9889 -54.9889   3.9345   4.6664   4.9997   5.1107
     5.2284   5.6180   6.0749   6.2433   6.4630   6.6414   6.7926   6.8065
     7.1185   7.4705   7.6377   7.7787   8.4912   9.7525  11.5268  15.3581
    16.7366  18.3226  19.4166  19.8219

          k = 0.4000 0.0000 0.6000 (  3212 PWs)   bands (ev):

   -94.5958 -54.9889 -54.9889 -54.9888   3.4588   4.7005   5.0564   5.0986
     5.2301   5.4950   5.9958   6.2898   6.4777   6.5677   6.8407   6.8496
     7.1645   7.4437   7.4901   7.7571   9.4989   9.9520  12.2258  15.8030
    16.2057  17.2794  18.8197  20.2285

          k = 0.8000-0.2000 1.0000 (  3224 PWs)   bands (ev):

   -94.5959 -54.9891 -54.9889 -54.9888   4.0473   4.4291   4.9806   5.1151
     5.2189   5.6892   5.8028   6.4019   6.5486   6.5935   6.8620   6.9636
     7.2171   7.5763   7.6225   7.8052   9.0309   9.9644  10.3913  14.2010
    15.3067  19.3368  21.1594  21.9585

          k = 0.7000-0.1000 0.9000 (  3223 PWs)   bands (ev):

   -94.5959 -54.9891 -54.9890 -54.9888   4.3527   4.5352   4.9607   5.0205
     5.2238   5.7982   5.9059   6.2119   6.5905   6.6765   6.8124   6.9198
     7.1018   7.6416   7.7723   8.0031   8.3781   9.2171  10.2868  14.6618
    16.2994  18.7266  20.4494  21.2340

          k = 0.6000 0.0000 0.8000 (  3229 PWs)   bands (ev):

   -94.5959 -54.9891 -54.9890 -54.9889   4.2657   4.6713   4.8934   5.0843
     5.2095   5.8022   6.0200   6.1455   6.6185   6.6876   6.8009   6.8548
     7.0403   7.5960   7.7722   7.8569   8.6229   8.7120  10.7679  14.9803
    17.8828  17.9823  19.0476  20.4888

          k =-0.2000-1.0000 0.0000 (  3230 PWs)   bands (ev):

   -94.5959 -54.9892 -54.9889 -54.9889   4.3514   4.8004   4.8686   4.9442
     5.2353   5.5550   6.0930   6.1422   6.5545   6.6532   6.8459   6.9655
     7.1909   7.7109   7.8027   8.1422   8.2130   9.5747   9.8273  14.1334
    15.2181  20.2456  21.3577  22.1163

          k = 0.6000-0.2000 1.0000 (  3221 PWs)   bands (ev):

   -94.5959 -54.9890 -54.9890 -54.9888   4.1622   4.5244   4.9855   5.0739
     5.2459   5.7450   5.9495   6.2899   6.5615   6.6054   6.8146   6.8891
     7.0619   7.5800   7.6953   7.8443   8.7615   9.2599  10.5225  15.8826
    16.6892  17.1561  20.0054  20.8261

          k = 0.5000-0.1000 0.9000 (  3222 PWs)   bands (ev):

   -94.5959 -54.9890 -54.9890 -54.9889   4.3629   4.5540   4.8978   5.0772
     5.2655   5.8055   6.0435   6.1633   6.6232   6.6547   6.7912   6.8666
     6.9908   7.6233   7.8039   8.0103   8.2893   9.1049  10.1782  16.3136
    16.6304  18.0820  18.3726  21.2104

          k =-0.4000-1.0000 0.0000 (  3216 PWs)   bands (ev):

   -94.5958 -54.9890 -54.9889 -54.9888   4.4528   4.6255   4.8162   5.0405
     5.2764   5.9181   5.9424   6.1291   6.5949   6.7509   6.8130   6.8640
     6.9824   7.6593   7.8562   8.0755   8.4636   8.9489   9.6616  15.7909
    16.7795  17.8911  18.8998  21.8818

     the Fermi energy is     7.8027 ev

!    total energy              =   -1389.39167107 Ry

     total all-electron energy =    -43178.891452 Ry
     estimated scf accuracy    <          3.8E-09 Ry
     smearing contrib. (-TS)   =      -0.00577502 Ry
     internal energy E=F+TS    =   -1389.38589606 Ry

     The total energy is F=E-TS. E is the sum of the following terms:
     one-electron contribution =    -330.22566021 Ry
     hartree contribution      =     196.56539916 Ry
     xc contribution           =    -102.40837462 Ry
     ewald contribution        =    -287.74634879 Ry
     one-center paw contrib.   =    -865.57091159 Ry

     convergence has been achieved in  16 iterations

     Writing output data file ././cunipt.save/

     init_run     :      4.39s CPU      4.50s WALL (       1 calls)
     electrons    :    194.72s CPU    197.09s WALL (       1 calls)

     Called by init_run:
     wfcinit      :      3.26s CPU      3.28s WALL (       1 calls)
     potinit      :      0.35s CPU      0.36s WALL (       1 calls)
     hinit0       :      0.69s CPU      0.69s WALL (       1 calls)

     Called by electrons:
     c_bands      :    164.92s CPU    165.30s WALL (      16 calls)
     sum_band     :     22.15s CPU     23.25s WALL (      16 calls)
     v_of_rho     :      0.49s CPU      0.50s WALL (      17 calls)
     newd         :      1.36s CPU      2.30s WALL (      17 calls)
     PAW_pot      :      6.11s CPU      6.12s WALL (      17 calls)
     mix_rho      :      0.07s CPU      0.07s WALL (      16 calls)

     Called by c_bands:
     init_us_2    :      1.71s CPU      1.72s WALL (    1551 calls)
     cegterg      :    158.86s CPU    159.22s WALL (     752 calls)

     Called by *egterg:
     cdiaghg      :      2.42s CPU      2.43s WALL (    2894 calls)
     h_psi        :     97.63s CPU     97.92s WALL (    2941 calls)
     s_psi        :     13.36s CPU     13.39s WALL (    2941 calls)
     g_psi        :      0.51s CPU      0.51s WALL (    2142 calls)

     Called by h_psi:
     h_psi:calbec :     12.44s CPU     12.47s WALL (    2941 calls)
     vloc_psi     :     71.36s CPU     71.59s WALL (    2941 calls)
     add_vuspsi   :     13.42s CPU     13.45s WALL (    2941 calls)

     General routines
     calbec       :     17.36s CPU     17.39s WALL (    3693 calls)
     fft          :      0.18s CPU      0.18s WALL (     187 calls)
     ffts         :      0.02s CPU      0.02s WALL (      16 calls)
     fftw         :     73.71s CPU     73.96s WALL (  126310 calls)

     Parallel routines

     PWSCF        :   3m19.35s CPU   3m21.87s WALL


   This run was terminated on:  21:12:17  13Sep2024            

=------------------------------------------------------------------------------=
   JOB DONE.
=------------------------------------------------------------------------------=
