
     Program PWSCF v.6.7MaX starts on 13Sep2024 at 20:26:51 

     This program is part of the open-source Quantum ESPRESSO suite
     for quantum simulation of materials; please cite
         "P. Giannozzi et al., J. Phys.:Condens. Matter 21 395502 (2009);
         "P. Giannozzi et al., J. Phys.:Condens. Matter 29 465901 (2017);
          URL http://www.quantum-espresso.org", 
     in publications or presentations arising from this work. More details at
     http://www.quantum-espresso.org/quote

     Parallel version (MPI), running on     1 processors

     MPI processes distributed on     1 nodes
     Waiting for input...
     Reading input from standard input

     Current dimensions of program PWSCF are:
     Max number of different atomic species (ntypx) = 10
     Max number of k-points (npk) =  40000
     Max angular momentum in pseudopotentials (lmaxx) =  3
     file Cu.upf: wavefunction(s)  4S 3D renormalized
     file Ni.upf: wavefunction(s)  3P 3D renormalized
     file Pt.upf: wavefunction(s)  6S 5D renormalized

     Subspace diagonalization in iterative solution of the eigenvalue problem:
     a serial algorithm will be used


     G-vector sticks info
     --------------------
     sticks:   dense  smooth     PW     G-vecs:    dense   smooth      PW
     Sum         823     823    253                15593    15593    2685



     bravais-lattice index     =            2
     lattice parameter (alat)  =      10.0000  a.u.
     unit-cell volume          =     250.0000 (a.u.)^3
     number of atoms/cell      =            3
     number of atomic types    =            3
     number of electrons       =        39.00
     number of Kohn-Sham states=           28
     kinetic-energy cutoff     =      60.0000  Ry
     charge density cutoff     =     240.0000  Ry
     scf convergence threshold =      1.0E-07
     mixing beta               =       0.7000
     number of iterations used =            8  plain     mixing
     Exchange-correlation= SLA  PW   PBX  PBC
                           (   1   4   3   4   0   0   0)

     celldm(1)=  10.000000  celldm(2)=   0.000000  celldm(3)=   0.000000
     celldm(4)=   0.000000  celldm(5)=   0.000000  celldm(6)=   0.000000

     crystal axes: (cart. coord. in units of alat)
               a(1) = (  -0.500000   0.000000   0.500000 )  
               a(2) = (   0.000000   0.500000   0.500000 )  
               a(3) = (  -0.500000   0.500000   0.000000 )  

     reciprocal axes: (cart. coord. in units 2 pi/alat)
               b(1) = ( -1.000000 -1.000000  1.000000 )  
               b(2) = (  1.000000  1.000000  1.000000 )  
               b(3) = ( -1.000000  1.000000 -1.000000 )  


     PseudoPot. # 1 for Cu read from file:
     ././Cu.upf
     MD5 check sum: cfffd1f38ee05704b3e17f46f1730a6f
     Pseudo is Projector augmented-wave + core cor, Zval = 11.0
     Generated using &quot;atomic&quot; code by A. Dal Corso  v.6.3
     Shape of augmentation charge: PSQ
     Using radial grid of 1199 points,  6 beta functions with: 
                l(1) =   0
                l(2) =   0
                l(3) =   1
                l(4) =   1
                l(5) =   2
                l(6) =   2
     Q(r) pseudized with 0 coefficients 


     PseudoPot. # 2 for Ni read from file:
     ././Ni.upf
     MD5 check sum: 6e86b733589c3ad8389697b807d86aa7
     Pseudo is Projector augmented-wave + core cor, Zval = 18.0
     Generated using &quot;atomic&quot; code by A. Dal Corso  v.6.3
     Shape of augmentation charge: PSQ
     Using radial grid of 1195 points,  6 beta functions with: 
                l(1) =   0
                l(2) =   0
                l(3) =   1
                l(4) =   1
                l(5) =   2
                l(6) =   2
     Q(r) pseudized with 0 coefficients 


     PseudoPot. # 3 for Pt read from file:
     ././Pt.upf
     MD5 check sum: c5224e9cd7a5e36e81f2def9f50bb494
     Pseudo is Projector augmented-wave + core cor, Zval = 10.0
     Generated using &quot;atomic&quot; code by A. Dal Corso  v.6.3
     Shape of augmentation charge: PSQ
     Using radial grid of 1277 points,  6 beta functions with: 
                l(1) =   0
                l(2) =   0
                l(3) =   1
                l(4) =   1
                l(5) =   2
                l(6) =   2
     Q(r) pseudized with 0 coefficients 


     atomic species   valence    mass     pseudopotential
        Cu            11.00    63.54600     Cu( 1.00)
        Ni            18.00    58.69300     Ni( 1.00)
        Pt            10.00   195.08000     Pt( 1.00)

     24 Sym. Ops. (no inversion) found



   Cartesian axes

     site n.     atom                  positions (alat units)
         1           Cu  tau(   1) = (   0.0000000   0.0000000   0.0000000  )
         2           Ni  tau(   2) = (   0.5000000   0.5000000   0.5000000  )
         3           Pt  tau(   3) = (   0.2500000   0.2500000   0.2500000  )

     number of k points=    47  Gaussian smearing, width (Ry)=  0.0100
                       cart. coord. in units 2pi/alat
        k(    1) = (   0.0000000   0.0000000   0.0000000), wk =   0.0020000
        k(    2) = (  -0.1000000   0.1000000  -0.1000000), wk =   0.0160000
        k(    3) = (  -0.2000000   0.2000000  -0.2000000), wk =   0.0160000
        k(    4) = (  -0.3000000   0.3000000  -0.3000000), wk =   0.0160000
        k(    5) = (  -0.4000000   0.4000000  -0.4000000), wk =   0.0160000
        k(    6) = (   0.5000000  -0.5000000   0.5000000), wk =   0.0080000
        k(    7) = (   0.0000000   0.2000000   0.0000000), wk =   0.0120000
        k(    8) = (  -0.1000000   0.3000000  -0.1000000), wk =   0.0480000
        k(    9) = (  -0.2000000   0.4000000  -0.2000000), wk =   0.0480000
        k(   10) = (  -0.3000000   0.5000000  -0.3000000), wk =   0.0480000
        k(   11) = (   0.6000000  -0.4000000   0.6000000), wk =   0.0480000
        k(   12) = (   0.5000000  -0.3000000   0.5000000), wk =   0.0480000
        k(   13) = (   0.4000000  -0.2000000   0.4000000), wk =   0.0480000
        k(   14) = (   0.3000000  -0.1000000   0.3000000), wk =   0.0480000
        k(   15) = (   0.2000000   0.0000000   0.2000000), wk =   0.0240000
        k(   16) = (   0.0000000   0.4000000   0.0000000), wk =   0.0120000
        k(   17) = (  -0.1000000   0.5000000  -0.1000000), wk =   0.0480000
        k(   18) = (  -0.2000000   0.6000000  -0.2000000), wk =   0.0480000
        k(   19) = (   0.7000000  -0.3000000   0.7000000), wk =   0.0480000
        k(   20) = (   0.6000000  -0.2000000   0.6000000), wk =   0.0480000
        k(   21) = (   0.5000000  -0.1000000   0.5000000), wk =   0.0480000
        k(   22) = (   0.4000000   0.0000000   0.4000000), wk =   0.0240000
        k(   23) = (   0.0000000   0.6000000   0.0000000), wk =   0.0120000
        k(   24) = (  -0.1000000   0.7000000  -0.1000000), wk =   0.0480000
        k(   25) = (   0.8000000  -0.2000000   0.8000000), wk =   0.0480000
        k(   26) = (   0.7000000  -0.1000000   0.7000000), wk =   0.0480000
        k(   27) = (   0.6000000  -0.0000000   0.6000000), wk =   0.0240000
        k(   28) = (   0.0000000   0.8000000   0.0000000), wk =   0.0120000
        k(   29) = (   0.9000000  -0.1000000   0.9000000), wk =   0.0480000
        k(   30) = (   0.8000000   0.0000000   0.8000000), wk =   0.0240000
        k(   31) = (   0.0000000  -1.0000000   0.0000000), wk =   0.0060000
        k(   32) = (  -0.2000000   0.4000000   0.0000000), wk =   0.0480000
        k(   33) = (  -0.3000000   0.5000000  -0.1000000), wk =   0.0960000
        k(   34) = (   0.6000000  -0.4000000   0.8000000), wk =   0.0960000
        k(   35) = (   0.5000000  -0.3000000   0.7000000), wk =   0.0480000
        k(   36) = (  -0.2000000   0.6000000   0.0000000), wk =   0.0480000
        k(   37) = (   0.7000000  -0.3000000   0.9000000), wk =   0.0960000
        k(   38) = (   0.6000000  -0.2000000   0.8000000), wk =   0.0960000
        k(   39) = (   0.5000000  -0.1000000   0.7000000), wk =   0.0960000
        k(   40) = (   0.4000000   0.0000000   0.6000000), wk =   0.0480000
        k(   41) = (   0.8000000  -0.2000000   1.0000000), wk =   0.0480000
        k(   42) = (   0.7000000  -0.1000000   0.9000000), wk =   0.0960000
        k(   43) = (   0.6000000   0.0000000   0.8000000), wk =   0.0480000
        k(   44) = (  -0.2000000  -1.0000000   0.0000000), wk =   0.0240000
        k(   45) = (   0.6000000  -0.2000000   1.0000000), wk =   0.0480000
        k(   46) = (   0.5000000  -0.1000000   0.9000000), wk =   0.0480000
        k(   47) = (  -0.4000000  -1.0000000   0.0000000), wk =   0.0240000

     Dense  grid:    15593 G-vectors     FFT dimensions: (  36,  36,  36)

     Estimated max dynamical RAM per process >     100.72 MB

     Check: negative core charge=   -0.000001

     Initial potential from superposition of free atoms

     starting charge   38.99935, renormalised to   39.00000
     Starting wfcs are   28 randomized atomic wfcs
     Checking if some PAW data can be deallocated... 

     total cpu time spent up to now is        3.8 secs

     Self-consistent Calculation

     iteration #  1     ecut=    60.00 Ry     beta= 0.70
     Davidson diagonalization with overlap
     ethr =  1.00E-02,  avg # of iterations =  5.7

     total cpu time spent up to now is       13.3 secs

     total energy              =   -1388.08251767 Ry
     estimated scf accuracy    <       1.61934526 Ry

     iteration #  2     ecut=    60.00 Ry     beta= 0.70
     Davidson diagonalization with overlap
     ethr =  4.15E-03,  avg # of iterations =  3.3

     total cpu time spent up to now is       22.7 secs

     total energy              =   -1386.20046001 Ry
     estimated scf accuracy    <      39.95952966 Ry

     iteration #  3     ecut=    60.00 Ry     beta= 0.70
     Davidson diagonalization with overlap
     ethr =  4.15E-03,  avg # of iterations =  3.6

     total cpu time spent up to now is       31.1 secs

     total energy              =   -1389.27864926 Ry
     estimated scf accuracy    <       0.54610309 Ry

     iteration #  4     ecut=    60.00 Ry     beta= 0.70
     Davidson diagonalization with overlap
     ethr =  1.40E-03,  avg # of iterations =  2.0

     total cpu time spent up to now is       37.5 secs

     total energy              =   -1389.32731377 Ry
     estimated scf accuracy    <       0.06037985 Ry

     iteration #  5     ecut=    60.00 Ry     beta= 0.70
     Davidson diagonalization with overlap
     ethr =  1.55E-04,  avg # of iterations =  3.0

     total cpu time spent up to now is       42.9 secs

     total energy              =   -1389.32711226 Ry
     estimated scf accuracy    <       0.01806634 Ry

     iteration #  6     ecut=    60.00 Ry     beta= 0.70
     Davidson diagonalization with overlap
     ethr =  4.63E-05,  avg # of iterations =  3.4

     total cpu time spent up to now is       49.0 secs

     total energy              =   -1389.33060136 Ry
     estimated scf accuracy    <       0.02365260 Ry

     iteration #  7     ecut=    60.00 Ry     beta= 0.70
     Davidson diagonalization with overlap
     ethr =  4.63E-05,  avg # of iterations =  1.0

     total cpu time spent up to now is       53.7 secs

     total energy              =   -1389.33322110 Ry
     estimated scf accuracy    <       0.00074944 Ry

     iteration #  8     ecut=    60.00 Ry     beta= 0.70
     Davidson diagonalization with overlap
     c_bands:  1 eigenvalues not converged
     ethr =  1.92E-06,  avg # of iterations =  5.7

     total cpu time spent up to now is       60.0 secs

     total energy              =   -1389.33339756 Ry
     estimated scf accuracy    <       0.00009100 Ry

     iteration #  9     ecut=    60.00 Ry     beta= 0.70
     Davidson diagonalization with overlap
     ethr =  2.33E-07,  avg # of iterations =  3.4

     total cpu time spent up to now is       66.1 secs

     total energy              =   -1389.33342199 Ry
     estimated scf accuracy    <       0.00000629 Ry

     iteration # 10     ecut=    60.00 Ry     beta= 0.70
     Davidson diagonalization with overlap
     ethr =  1.61E-08,  avg # of iterations =  3.6

     total cpu time spent up to now is       72.4 secs

     total energy              =   -1389.33342277 Ry
     estimated scf accuracy    <       0.00000311 Ry

     iteration # 11     ecut=    60.00 Ry     beta= 0.70
     Davidson diagonalization with overlap
     ethr =  7.98E-09,  avg # of iterations =  1.7

     total cpu time spent up to now is       77.4 secs

     End of self-consistent calculation

          k = 0.0000 0.0000 0.0000 (  1917 PWs)   bands (ev):

   -86.6222 -47.0340 -47.0340 -47.0340   6.8412  10.8797  10.8797  11.3666
    11.3666  11.3666  13.0388  13.0388  13.0388  15.1700  15.1700  15.5178
    15.5178  15.5178  16.3692  16.3692  27.6358  27.8208  27.8208  27.8208
    28.2816  28.2816  28.2816  28.5708

          k =-0.1000 0.1000-0.1000 (  1959 PWs)   bands (ev):

   -86.6227 -47.0347 -47.0343 -47.0343   7.0269  10.9237  10.9237  11.3198
    11.3583  11.3583  13.0659  13.0887  13.0887  15.1160  15.1160  15.3503
    15.5214  15.5214  16.3561  16.3561  25.2102  26.9946  26.9946  27.3385
    28.4677  28.5303  28.5303  29.4907

          k =-0.2000 0.2000-0.2000 (  1949 PWs)   bands (ev):

   -86.6224 -47.0346 -47.0342 -47.0342   7.5614  11.0274  11.0274  11.2379
    11.3609  11.3609  13.0688  13.2219  13.2219  14.9264  14.9264  14.9616
    15.5495  15.5495  16.3463  16.3463  22.4170  25.8678  25.8678  26.7006
    28.4926  28.4926  29.1141  30.4585

          k =-0.3000 0.3000-0.3000 (  1967 PWs)   bands (ev):

   -86.6225 -47.0349 -47.0342 -47.0342   8.3508  11.0888  11.0888  11.2297
    11.4650  11.4650  12.8752  13.3941  13.3941  14.6088  14.6088  14.6260
    15.6144  15.6144  16.3682  16.3682  19.9478  24.8425  24.8425  26.2083
    28.3988  28.3988  29.5733  32.0514

          k =-0.4000 0.4000-0.4000 (  1949 PWs)   bands (ev):

   -86.6223 -47.0348 -47.0340 -47.0340   9.1599  11.0819  11.0819  11.3853
    11.6474  11.6474  12.4403  13.5516  13.5516  14.2753  14.2753  14.5114
    15.6862  15.6862  16.4042  16.4042  18.0956  24.1205  24.1205  25.9181
    28.3282  28.3282  29.7432  33.3774

          k = 0.5000-0.5000 0.5000 (  1946 PWs)   bands (ev):

   -86.6222 -47.0349 -47.0338 -47.0338   9.5315  11.0727  11.0727  11.6326
    11.7385  11.7385  12.0654  13.6293  13.6293  14.1133  14.1133  14.5108
    15.7178  15.7178  16.4217  16.4217  17.3557  23.8587  23.8587  25.8227
    28.3028  28.3028  29.7827  34.0719

          k = 0.0000 0.2000 0.0000 (  1965 PWs)   bands (ev):

   -86.6227 -47.0347 -47.0343 -47.0343   7.0899  10.8828  10.9920  11.2552
    11.3749  11.3749  12.9322  13.1870  13.1870  15.0725  15.1395  15.4356
    15.4356  15.4794  16.2618  16.4180  25.7272  25.7272  26.6095  26.9773
    27.6205  28.9254  28.9254  29.4902

          k =-0.1000 0.3000-0.1000 (  1966 PWs)   bands (ev):

   -86.6226 -47.0348 -47.0343 -47.0343   7.5118  10.9152  11.1229  11.1385
    11.3716  11.3926  12.8983  13.3259  13.3641  14.9456  14.9903  15.1372
    15.4265  15.5504  16.1752  16.4380  23.2531  24.5918  26.0780  26.5020
    27.7927  28.9649  29.2870  30.1279

          k =-0.2000 0.4000-0.2000 (  1954 PWs)   bands (ev):

   -86.6224 -47.0349 -47.0341 -47.0341   8.2264  10.9491  11.1048  11.1879
    11.3875  11.5131  12.9310  13.3860  13.5641  14.6364  14.7066  14.7954
    15.5307  15.6104  16.1655  16.4502  20.6762  23.6926  24.8672  26.0985
    28.8521  29.3267  29.4184  30.4356

          k =-0.3000 0.5000-0.3000 (  1961 PWs)   bands (ev):

   -86.6224 -47.0350 -47.0340 -47.0340   9.0550  10.9234  11.1616  11.2154
    11.4892  11.7119  12.8269  13.4260  13.7181  14.2416  14.4435  14.5957
    15.6313  15.6726  16.2572  16.4494  18.5717  23.1719  23.7384  25.8655
    28.9374  29.2779  30.4469  31.1707

          k = 0.6000-0.4000 0.6000 (  1968 PWs)   bands (ev):

   -86.6224 -47.0351 -47.0340 -47.0340   9.6079  10.9311  11.1266  11.3591
    11.6203  11.8091  12.6038  13.5709  13.6866  14.0922  14.2255  14.5354
    15.6575  15.7434  16.3973  16.3980  17.3804  22.9374  23.1713  25.7868
    28.9987  29.0253  30.5185  33.0650

          k = 0.5000-0.3000 0.5000 (  1963 PWs)   bands (ev):

   -86.6224 -47.0350 -47.0340 -47.0340   9.4761  10.9790  11.1115  11.3618
    11.6023  11.6994  12.6855  13.5096  13.7131  14.1277  14.2680  14.5285
    15.6348  15.7486  16.2813  16.4832  17.6599  22.6207  23.7455  25.8705
    28.7043  29.0372  30.6497  33.2462

          k = 0.4000-0.2000 0.4000 (  1964 PWs)   bands (ev):

   -86.6225 -47.0349 -47.0342 -47.0340   8.7750  11.0333  11.1109  11.2284
    11.4716  11.5319  12.9580  13.3435  13.6471  14.3549  14.5582  14.5911
    15.6068  15.6628  16.1830  16.4895  19.2299  22.8262  24.8175  26.1358
    28.4741  28.9262  30.6864  31.6240

          k = 0.3000-0.1000 0.3000 (  1958 PWs)   bands (ev):

   -86.6225 -47.0348 -47.0342 -47.0341   7.9571  11.0601  11.0854  11.1674
    11.3250  11.4361  13.0852  13.1925  13.4841  14.7381  14.8179  14.8367
    15.5251  15.5932  16.1788  16.4543  21.5242  23.4531  26.2292  26.6142
    28.3671  28.6174  30.0062  30.1351

          k = 0.2000 0.0000 0.2000 (  1965 PWs)   bands (ev):

   -86.6227 -47.0347 -47.0343 -47.0343   7.3305  10.9554  11.0210  11.2360
    11.3272  11.3888  13.0598  13.0945  13.2902  15.0105  15.0213  15.1780
    15.4446  15.5764  16.2541  16.4132  24.0584  24.4665  27.2770  27.6876
    28.1114  28.3562  28.7091  29.4967

          k = 0.0000 0.4000 0.0000 (  1980 PWs)   bands (ev):

   -86.6228 -47.0352 -47.0342 -47.0342   7.8186  10.8145  10.9667  11.3204
    11.4053  11.4053  12.7349  13.5877  13.5877  14.8896  15.0165  15.2668
    15.2668  15.4221  15.9880  16.4657  23.3505  23.3505  24.3753  25.8680
    26.7167  30.0795  30.0795  31.5709

          k =-0.1000 0.5000-0.1000 (  1973 PWs)   bands (ev):

   -86.6226 -47.0353 -47.0340 -47.0340   8.4360  10.7028  10.8915  11.3632
    11.4220  11.6079  12.7294  13.7679  13.8181  14.6962  14.7813  15.0052
    15.3718  15.5285  15.9053  16.4689  21.2521  22.3515  23.2219  25.9152
    27.1511  30.4798  30.6727  32.4455

          k =-0.2000 0.6000-0.2000 (  1962 PWs)   bands (ev):

   -86.6224 -47.0353 -47.0339 -47.0338   9.2248  10.6024  10.9387  11.3112
    11.4689  11.8824  12.8445  13.7903  13.9915  14.2036  14.5688  14.8130
    15.4924  15.6548  16.0620  16.4603  19.0278  21.7634  22.1235  25.8972
    28.5719  30.5259  30.7848  32.6254

          k = 0.7000-0.3000 0.7000 (  1958 PWs)   bands (ev):

   -86.6223 -47.0353 -47.0338 -47.0337   9.8448  10.6137  11.0331  11.2519
    11.5699  12.0370  13.0047  13.7349  13.7572  14.1260  14.4122  14.6849
    15.4840  15.7840  16.3579  16.4168  17.4547  21.1858  21.7605  25.8872
    30.1628  30.4808  30.5735  32.8631

          k = 0.6000-0.2000 0.6000 (  1974 PWs)   bands (ev):

   -86.6225 -47.0353 -47.0340 -47.0339   9.8725  10.7759  11.1435  11.2079
    11.5567  11.9230  13.1811  13.5121  13.7757  14.2658  14.2678  14.5875
    15.4688  15.7943  16.2378  16.5364  17.3312  20.6194  22.4106  25.9624
    30.0319  30.0826  31.7277  33.6041

          k = 0.5000-0.1000 0.5000 (  1959 PWs)   bands (ev):

   -86.6223 -47.0351 -47.0340 -47.0338   9.3777  10.8935  11.1815  11.1892
    11.4767  11.6213  13.2793  13.3774  13.9104  14.1205  14.4741  14.5836
    15.4968  15.7805  15.9882  16.5698  18.6335  20.5904  23.5792  26.1362
    29.6131  29.7535  31.2036  31.8805

          k = 0.4000 0.0000 0.4000 (  1953 PWs)   bands (ev):

   -86.6223 -47.0349 -47.0341 -47.0339   8.6264  10.9891  11.1642  11.1670
    11.3662  11.4712  13.2226  13.2601  13.7349  14.4005  14.6711  14.6864
    15.5579  15.6418  16.0038  16.5267  20.4603  21.2882  25.0111  26.3889
    29.1855  29.2173  30.3010  30.3329

          k = 0.0000 0.6000 0.0000 (  1968 PWs)   bands (ev):

   -86.6225 -47.0353 -47.0339 -47.0339   8.9534  10.4738  10.7452  11.4571
    11.4571  11.8376  12.5995  14.0319  14.0319  14.6895  14.7943  15.2994
    15.2994  15.3472  15.7111  16.4805  21.1770  21.1770  21.3867  25.5193
    26.5366  31.8677  31.8677  34.1469

          k =-0.1000 0.7000-0.1000 (  1963 PWs)   bands (ev):

   -86.6224 -47.0355 -47.0337 -47.0336   9.6635  10.3209  10.7065  11.4456
    11.4891  12.1563  12.6060  14.0863  14.1086  14.3339  14.7282  15.1435
    15.4059  15.6423  15.8894  16.5071  19.3165  20.3892  20.5034  25.7513
    26.9220  32.4048  32.5052  34.9892

          k = 0.8000-0.2000 0.8000 (  1967 PWs)   bands (ev):

   -86.6223 -47.0356 -47.0337 -47.0335  10.1479  10.4187  10.7685  11.3858
    11.5500  12.4138  12.7551  13.6722  14.1358  14.3212  14.5938  15.0214
    15.2987  15.9053  16.3627  16.5945  17.5828  19.5594  20.2426  25.9207
    28.3252  32.2464  32.2493  34.8065

          k = 0.7000-0.1000 0.7000 (  1959 PWs)   bands (ev):

   -86.6222 -47.0354 -47.0337 -47.0335  10.1105  10.7536  10.8859  11.3132
    11.5460  12.3488  13.0822  13.4149  14.1509  14.3641  14.4998  14.8269
    15.2530  15.8308  16.4381  16.6010  17.2287  18.8529  20.8890  26.0043
    30.2591  31.5736  31.7986  33.5390

          k = 0.6000-0.0000 0.6000 (  1959 PWs)   bands (ev):

   -86.6223 -47.0352 -47.0339 -47.0336   9.8944  10.8314  11.0613  11.2498
    11.4537  11.9654  13.3785  13.4096  14.0073  14.2971  14.3958  14.6373
    15.3426  15.6967  16.1489  16.6245  18.1423  18.9196  22.1188  26.0847
    30.7236  31.0498  31.5560  32.9508

          k = 0.0000 0.8000 0.0000 (  1984 PWs)   bands (ev):

   -86.6225 -47.0357 -47.0337 -47.0337  10.1067  10.2572  10.6646  11.5091
    11.5091  12.3803  12.4878  14.1077  14.1533  14.1533  14.7951  15.2694
    15.5708  15.9507  15.9507  16.6004  18.9011  19.3168  19.3168  25.4558
    26.4809  34.1876  34.1876  35.6993

          k = 0.9000-0.1000 0.9000 (  1967 PWs)   bands (ev):

   -86.6223 -47.0356 -47.0335 -47.0335  10.0601  10.4606  11.0080  11.4900
    11.5453  12.2987  12.8222  13.5811  14.1684  14.2936  14.7554  15.2155
    15.3897  16.3372  16.4788  16.8493  17.7209  18.4604  18.9150  25.7455
    26.8547  34.1571  34.6210  36.5332

          k = 0.8000 0.0000 0.8000 (  1950 PWs)   bands (ev):

   -86.6221 -47.0354 -47.0335 -47.0333  10.0914  10.6199  11.0042  11.4129
    11.5607  12.6457  12.8923  13.2059  14.2452  14.4301  14.6431  15.1257
    15.1900  16.3648  16.6510  16.6552  17.4791  17.7319  19.5642  25.9544
    28.2682  33.0205  33.8708  34.3687

          k = 0.0000-1.0000 0.0000 (  1964 PWs)   bands (ev):

   -86.6223 -47.0356 -47.0334 -47.0334   9.9980  10.4022  11.5313  11.5313
    11.5638  11.7991  13.0094  13.5950  14.1362  14.1362  14.8100  15.2361
    15.5341  16.6525  16.6525  16.9672  17.5738  18.2572  18.2572  25.4641
    26.4705  35.5929  36.5813  36.5814

          k =-0.2000 0.4000 0.0000 (  1964 PWs)   bands (ev):

   -86.6226 -47.0350 -47.0342 -47.0341   8.0296  10.8970  11.0265  11.2456
    11.3652  11.4677  12.8763  13.4650  13.6072  14.7617  14.8284  14.9435
    15.4537  15.5609  16.0564  16.4675  22.0725  22.6289  24.9892  26.7889
    27.5451  29.2017  29.9112  31.4227

          k =-0.3000 0.5000-0.1000 (  1965 PWs)   bands (ev):

   -86.6225 -47.0351 -47.0341 -47.0339   8.7846  10.8168  11.0641  11.2596
    11.3969  11.6360  12.9682  13.5374  13.8122  14.3648  14.6316  14.7261
    15.5363  15.6430  16.0243  16.4958  19.8625  21.7461  23.7960  26.5738
    28.5221  29.4400  30.2767  32.0777

          k = 0.6000-0.4000 0.8000 (  1961 PWs)   bands (ev):

   -86.6223 -47.0351 -47.0340 -47.0338   9.5307  10.7623  11.1326  11.2324
    11.5084  11.8261  13.0470  13.5257  13.8707  14.0794  14.4244  14.6095
    15.5180  15.7849  16.1563  16.5055  17.9994  21.4237  22.7308  26.3271
    28.8941  30.3401  30.8575  32.3657

          k = 0.5000-0.3000 0.7000 (  1960 PWs)   bands (ev):

   -86.6223 -47.0352 -47.0338 -47.0338   9.8545  10.7489  11.1513  11.2315
    11.6036  11.9165  13.0465  13.5592  13.7075  14.1305  14.3200  14.5701
    15.5049  15.8581  16.2901  16.4819  17.1958  21.4534  22.1896  26.2444
    28.9265  30.5253  31.4701  33.2951

          k =-0.2000 0.6000 0.0000 (  1966 PWs)   bands (ev):

   -86.6224 -47.0354 -47.0339 -47.0338   9.1006  10.5355  10.8458  11.3854
    11.4454  11.8581  12.7497  13.9274  14.0234  14.3765  14.7111  14.9180
    15.4470  15.5805  15.8887  16.4824  20.1285  20.7700  22.0961  26.3608
    27.1941  30.5874  31.7012  33.9845

          k = 0.7000-0.3000 0.9000 (  1962 PWs)   bands (ev):

   -86.6223 -47.0354 -47.0338 -47.0336   9.8146  10.4493  10.8734  11.3631
    11.5017  12.1099  12.8912  13.9153  13.9860  14.1365  14.5875  14.8277
    15.3601  15.8428  16.1137  16.5258  18.3395  20.1016  21.1095  26.6048
    28.4100  30.2967  32.2594  34.0653

          k = 0.6000-0.2000 0.8000 (  1954 PWs)   bands (ev):

   -86.6222 -47.0353 -47.0337 -47.0335  10.1409  10.5409  10.9358  11.3369
    11.5809  12.2148  13.1394  13.5553  13.9800  14.1773  14.5376  14.7038
    15.2960  16.0063  16.3600  16.6003  17.1038  19.7909  20.7436  26.6783
    29.7226  30.4766  32.1913  33.0453

          k = 0.5000-0.1000 0.7000 (  1966 PWs)   bands (ev):

   -86.6223 -47.0353 -47.0339 -47.0337   9.9913  10.6500  11.0151  11.3323
    11.5050  12.0540  13.2764  13.5270  13.9337  14.1746  14.5280  14.6189
    15.3140  15.9081  16.1735  16.6100  17.6390  19.4741  21.4466  26.8351
    29.4342  30.8748  32.0068  32.5203

          k = 0.4000 0.0000 0.6000 (  1967 PWs)   bands (ev):

   -86.6224 -47.0353 -47.0340 -47.0338   9.4760  10.7016  11.0595  11.3219
    11.4021  11.8037  13.1179  13.6466  14.0108  14.0931  14.5656  14.6330
    15.4209  15.8489  15.9264  16.5616  19.0062  19.8861  22.5883  27.0028
    28.7939  29.7496  31.2709  32.9853

          k = 0.8000-0.2000 1.0000 (  1974 PWs)   bands (ev):

   -86.6224 -47.0357 -47.0337 -47.0336  10.1726  10.3069  10.6984  11.4638
    11.5227  12.4664  12.5899  13.8064  14.1408  14.3231  14.7082  15.0881
    15.3297  16.0125  16.2049  16.6236  18.3716  19.1233  19.6702  26.2590
    27.0656  32.2330  33.9428  35.4097

          k = 0.7000-0.1000 0.9000 (  1956 PWs)   bands (ev):

   -86.6222 -47.0355 -47.0336 -47.0333  10.1701  10.6248  10.7664  11.4757
    11.5716  12.6714  12.7848  13.4076  14.1482  14.4225  14.6536  14.8846
    15.2384  16.2324  16.6038  16.9698  17.1385  18.4525  19.3278  26.6648
    28.3300  31.6294  33.4102  34.4139

          k = 0.6000 0.0000 0.8000 (  1950 PWs)   bands (ev):

   -86.6221 -47.0353 -47.0337 -47.0334  10.1724  10.6932  10.8387  11.4500
    11.5273  12.4391  13.1687  13.3505  14.1747  14.2868  14.6265  14.7250
    15.2075  16.0844  16.3859  16.7151  17.6088  18.0764  20.1725  26.8161
    30.3459  30.7968  31.6476  33.4536

          k =-0.2000-1.0000 0.0000 (  1956 PWs)   bands (ev):

   -86.6222 -47.0355 -47.0335 -47.0333  10.0635  10.5115  11.0692  11.5468
    11.5754  12.3402  13.1176  13.2028  14.1200  14.4284  14.7297  15.1126
    15.2931  16.4753  16.7351  17.2153  17.2973  18.2068  18.3150  26.2593
    27.0358  33.4118  34.6919  36.0109

          k = 0.6000-0.2000 1.0000 (  1960 PWs)   bands (ev):

   -86.6223 -47.0354 -47.0337 -47.0335  10.2667  10.3957  10.8429  11.4586
    11.5318  12.3447  13.0521  13.6208  14.1039  14.1348  14.6224  14.7639
    15.2378  16.1160  16.3267  16.6990  17.8080  18.6458  20.0345  27.8914
    28.6206  29.9774  32.8006  33.5843

          k = 0.5000-0.1000 0.9000 (  1952 PWs)   bands (ev):

   -86.6221 -47.0354 -47.0337 -47.0334  10.3461  10.4491  10.8302  11.4941
    11.5890  12.4761  13.2446  13.3853  14.1232  14.1518  14.5856  14.7463
    15.2198  16.2134  16.6365  16.9313  17.0434  18.4859  19.3860  28.1048
    29.4553  30.6368  30.8047  34.1654

          k =-0.4000-1.0000 0.0000 (  1956 PWs)   bands (ev):

   -86.6222 -47.0355 -47.0337 -47.0333  10.2631  10.6027  10.7280  11.5603
    11.6051  12.7425  13.0101  13.3001  14.0834  14.4349  14.5523  14.7517
    15.2453  16.3144  16.8558  16.9413  17.6081  17.9811  18.3449  28.2435
    28.5747  30.7924  31.4919  35.4349

     the Fermi energy is    16.5769 ev

!    total energy              =   -1389.33342312 Ry

     total all-electron energy =    -43178.833204 Ry
     estimated scf accuracy    <       0.00000002 Ry
     smearing contrib. (-TS)   =      -0.00402565 Ry
     internal energy E=F+TS    =   -1389.32939746 Ry

     The total energy is F=E-TS. E is the sum of the following terms:
     one-electron contribution =    -246.91829075 Ry
     hartree contribution      =     166.23088447 Ry
     xc contribution           =    -103.33634887 Ry
     ewald contribution        =    -339.54069157 Ry
     one-center paw contrib.   =    -865.76495075 Ry

     convergence has been achieved in  11 iterations

     Writing output data file ././cunipt.save/

     init_run     :      3.41s CPU      3.52s WALL (       1 calls)
     electrons    :     72.73s CPU     73.56s WALL (       1 calls)

     Called by init_run:
     wfcinit      :      2.10s CPU      2.13s WALL (       1 calls)
     potinit      :      0.44s CPU      0.46s WALL (       1 calls)
     hinit0       :      0.80s CPU      0.81s WALL (       1 calls)

     Called by electrons:
     c_bands      :     60.90s CPU     60.98s WALL (      11 calls)
     sum_band     :      7.47s CPU      7.85s WALL (      11 calls)
     v_of_rho     :      0.16s CPU      0.16s WALL (      12 calls)
     newd         :      0.51s CPU      0.87s WALL (      12 calls)
     PAW_pot      :      4.13s CPU      4.19s WALL (      12 calls)
     mix_rho      :      0.02s CPU      0.02s WALL (      11 calls)

     Called by c_bands:
     init_us_2    :      0.67s CPU      0.68s WALL (    1081 calls)
     cegterg      :     58.61s CPU     58.68s WALL (     517 calls)

     Called by *egterg:
     cdiaghg      :      1.82s CPU      1.83s WALL (    2230 calls)
     h_psi        :     33.64s CPU     33.71s WALL (    2277 calls)
     s_psi        :      5.31s CPU      5.32s WALL (    2277 calls)
     g_psi        :      0.22s CPU      0.22s WALL (    1713 calls)

     Called by h_psi:
     h_psi:calbec :      4.82s CPU      4.83s WALL (    2277 calls)
     vloc_psi     :     23.36s CPU     23.42s WALL (    2277 calls)
     add_vuspsi   :      5.35s CPU      5.36s WALL (    2277 calls)

     General routines
     calbec       :      6.62s CPU      6.63s WALL (    2794 calls)
     fft          :      0.07s CPU      0.08s WALL (     132 calls)
     ffts         :      0.01s CPU      0.01s WALL (      11 calls)
     fftw         :     24.27s CPU     24.33s WALL (   88850 calls)

     Parallel routines

     PWSCF        :   1m16.44s CPU   1m17.43s WALL


   This run was terminated on:  20:28: 8  13Sep2024            

=------------------------------------------------------------------------------=
   JOB DONE.
=------------------------------------------------------------------------------=
