
     Program PWSCF v.6.7MaX starts on 13Sep2024 at 20:28: 9 

     This program is part of the open-source Quantum ESPRESSO suite
     for quantum simulation of materials; please cite
         "P. Giannozzi et al., J. Phys.:Condens. Matter 21 395502 (2009);
         "P. Giannozzi et al., J. Phys.:Condens. Matter 29 465901 (2017);
          URL http://www.quantum-espresso.org", 
     in publications or presentations arising from this work. More details at
     http://www.quantum-espresso.org/quote

     Parallel version (MPI), running on     1 processors

     MPI processes distributed on     1 nodes
     Waiting for input...
     Reading input from standard input

     Current dimensions of program PWSCF are:
     Max number of different atomic species (ntypx) = 10
     Max number of k-points (npk) =  40000
     Max angular momentum in pseudopotentials (lmaxx) =  3
     file Cu.upf: wavefunction(s)  4S 3D renormalized
     file Ni.upf: wavefunction(s)  3P 3D renormalized
     file Pt.upf: wavefunction(s)  6S 5D renormalized

     Subspace diagonalization in iterative solution of the eigenvalue problem:
     a serial algorithm will be used


     G-vector sticks info
     --------------------
     sticks:   dense  smooth     PW     G-vecs:    dense   smooth      PW
     Sum         847     847    253                16361    16361    2733



     bravais-lattice index     =            2
     lattice parameter (alat)  =      10.1000  a.u.
     unit-cell volume          =     257.5752 (a.u.)^3
     number of atoms/cell      =            3
     number of atomic types    =            3
     number of electrons       =        39.00
     number of Kohn-Sham states=           28
     kinetic-energy cutoff     =      60.0000  Ry
     charge density cutoff     =     240.0000  Ry
     scf convergence threshold =      1.0E-07
     mixing beta               =       0.7000
     number of iterations used =            8  plain     mixing
     Exchange-correlation= SLA  PW   PBX  PBC
                           (   1   4   3   4   0   0   0)

     celldm(1)=  10.100000  celldm(2)=   0.000000  celldm(3)=   0.000000
     celldm(4)=   0.000000  celldm(5)=   0.000000  celldm(6)=   0.000000

     crystal axes: (cart. coord. in units of alat)
               a(1) = (  -0.500000   0.000000   0.500000 )  
               a(2) = (   0.000000   0.500000   0.500000 )  
               a(3) = (  -0.500000   0.500000   0.000000 )  

     reciprocal axes: (cart. coord. in units 2 pi/alat)
               b(1) = ( -1.000000 -1.000000  1.000000 )  
               b(2) = (  1.000000  1.000000  1.000000 )  
               b(3) = ( -1.000000  1.000000 -1.000000 )  


     PseudoPot. # 1 for Cu read from file:
     ././Cu.upf
     MD5 check sum: cfffd1f38ee05704b3e17f46f1730a6f
     Pseudo is Projector augmented-wave + core cor, Zval = 11.0
     Generated using &quot;atomic&quot; code by A. Dal Corso  v.6.3
     Shape of augmentation charge: PSQ
     Using radial grid of 1199 points,  6 beta functions with: 
                l(1) =   0
                l(2) =   0
                l(3) =   1
                l(4) =   1
                l(5) =   2
                l(6) =   2
     Q(r) pseudized with 0 coefficients 


     PseudoPot. # 2 for Ni read from file:
     ././Ni.upf
     MD5 check sum: 6e86b733589c3ad8389697b807d86aa7
     Pseudo is Projector augmented-wave + core cor, Zval = 18.0
     Generated using &quot;atomic&quot; code by A. Dal Corso  v.6.3
     Shape of augmentation charge: PSQ
     Using radial grid of 1195 points,  6 beta functions with: 
                l(1) =   0
                l(2) =   0
                l(3) =   1
                l(4) =   1
                l(5) =   2
                l(6) =   2
     Q(r) pseudized with 0 coefficients 


     PseudoPot. # 3 for Pt read from file:
     ././Pt.upf
     MD5 check sum: c5224e9cd7a5e36e81f2def9f50bb494
     Pseudo is Projector augmented-wave + core cor, Zval = 10.0
     Generated using &quot;atomic&quot; code by A. Dal Corso  v.6.3
     Shape of augmentation charge: PSQ
     Using radial grid of 1277 points,  6 beta functions with: 
                l(1) =   0
                l(2) =   0
                l(3) =   1
                l(4) =   1
                l(5) =   2
                l(6) =   2
     Q(r) pseudized with 0 coefficients 


     atomic species   valence    mass     pseudopotential
        Cu            11.00    63.54600     Cu( 1.00)
        Ni            18.00    58.69300     Ni( 1.00)
        Pt            10.00   195.08000     Pt( 1.00)

     24 Sym. Ops. (no inversion) found



   Cartesian axes

     site n.     atom                  positions (alat units)
         1           Cu  tau(   1) = (   0.0000000   0.0000000   0.0000000  )
         2           Ni  tau(   2) = (   0.5000000   0.5000000   0.5000000  )
         3           Pt  tau(   3) = (   0.2500000   0.2500000   0.2500000  )

     number of k points=    47  Gaussian smearing, width (Ry)=  0.0100
                       cart. coord. in units 2pi/alat
        k(    1) = (   0.0000000   0.0000000   0.0000000), wk =   0.0020000
        k(    2) = (  -0.1000000   0.1000000  -0.1000000), wk =   0.0160000
        k(    3) = (  -0.2000000   0.2000000  -0.2000000), wk =   0.0160000
        k(    4) = (  -0.3000000   0.3000000  -0.3000000), wk =   0.0160000
        k(    5) = (  -0.4000000   0.4000000  -0.4000000), wk =   0.0160000
        k(    6) = (   0.5000000  -0.5000000   0.5000000), wk =   0.0080000
        k(    7) = (   0.0000000   0.2000000   0.0000000), wk =   0.0120000
        k(    8) = (  -0.1000000   0.3000000  -0.1000000), wk =   0.0480000
        k(    9) = (  -0.2000000   0.4000000  -0.2000000), wk =   0.0480000
        k(   10) = (  -0.3000000   0.5000000  -0.3000000), wk =   0.0480000
        k(   11) = (   0.6000000  -0.4000000   0.6000000), wk =   0.0480000
        k(   12) = (   0.5000000  -0.3000000   0.5000000), wk =   0.0480000
        k(   13) = (   0.4000000  -0.2000000   0.4000000), wk =   0.0480000
        k(   14) = (   0.3000000  -0.1000000   0.3000000), wk =   0.0480000
        k(   15) = (   0.2000000   0.0000000   0.2000000), wk =   0.0240000
        k(   16) = (   0.0000000   0.4000000   0.0000000), wk =   0.0120000
        k(   17) = (  -0.1000000   0.5000000  -0.1000000), wk =   0.0480000
        k(   18) = (  -0.2000000   0.6000000  -0.2000000), wk =   0.0480000
        k(   19) = (   0.7000000  -0.3000000   0.7000000), wk =   0.0480000
        k(   20) = (   0.6000000  -0.2000000   0.6000000), wk =   0.0480000
        k(   21) = (   0.5000000  -0.1000000   0.5000000), wk =   0.0480000
        k(   22) = (   0.4000000   0.0000000   0.4000000), wk =   0.0240000
        k(   23) = (   0.0000000   0.6000000   0.0000000), wk =   0.0120000
        k(   24) = (  -0.1000000   0.7000000  -0.1000000), wk =   0.0480000
        k(   25) = (   0.8000000  -0.2000000   0.8000000), wk =   0.0480000
        k(   26) = (   0.7000000  -0.1000000   0.7000000), wk =   0.0480000
        k(   27) = (   0.6000000  -0.0000000   0.6000000), wk =   0.0240000
        k(   28) = (   0.0000000   0.8000000   0.0000000), wk =   0.0120000
        k(   29) = (   0.9000000  -0.1000000   0.9000000), wk =   0.0480000
        k(   30) = (   0.8000000   0.0000000   0.8000000), wk =   0.0240000
        k(   31) = (   0.0000000  -1.0000000   0.0000000), wk =   0.0060000
        k(   32) = (  -0.2000000   0.4000000   0.0000000), wk =   0.0480000
        k(   33) = (  -0.3000000   0.5000000  -0.1000000), wk =   0.0960000
        k(   34) = (   0.6000000  -0.4000000   0.8000000), wk =   0.0960000
        k(   35) = (   0.5000000  -0.3000000   0.7000000), wk =   0.0480000
        k(   36) = (  -0.2000000   0.6000000   0.0000000), wk =   0.0480000
        k(   37) = (   0.7000000  -0.3000000   0.9000000), wk =   0.0960000
        k(   38) = (   0.6000000  -0.2000000   0.8000000), wk =   0.0960000
        k(   39) = (   0.5000000  -0.1000000   0.7000000), wk =   0.0960000
        k(   40) = (   0.4000000   0.0000000   0.6000000), wk =   0.0480000
        k(   41) = (   0.8000000  -0.2000000   1.0000000), wk =   0.0480000
        k(   42) = (   0.7000000  -0.1000000   0.9000000), wk =   0.0960000
        k(   43) = (   0.6000000   0.0000000   0.8000000), wk =   0.0480000
        k(   44) = (  -0.2000000  -1.0000000   0.0000000), wk =   0.0240000
        k(   45) = (   0.6000000  -0.2000000   1.0000000), wk =   0.0480000
        k(   46) = (   0.5000000  -0.1000000   0.9000000), wk =   0.0480000
        k(   47) = (  -0.4000000  -1.0000000   0.0000000), wk =   0.0240000

     Dense  grid:    16361 G-vectors     FFT dimensions: (  36,  36,  36)

     Estimated max dynamical RAM per process >     104.55 MB

     Check: negative core charge=   -0.000002

     Initial potential from superposition of free atoms

     starting charge   38.99935, renormalised to   39.00000
     Starting wfcs are   28 randomized atomic wfcs
     Checking if some PAW data can be deallocated... 

     total cpu time spent up to now is        3.0 secs

     Self-consistent Calculation

     iteration #  1     ecut=    60.00 Ry     beta= 0.70
     Davidson diagonalization with overlap
     ethr =  1.00E-02,  avg # of iterations =  6.0

     total cpu time spent up to now is       10.4 secs

     total energy              =   -1388.08095213 Ry
     estimated scf accuracy    <       1.65841202 Ry

     iteration #  2     ecut=    60.00 Ry     beta= 0.70
     Davidson diagonalization with overlap
     ethr =  4.25E-03,  avg # of iterations =  3.3

     total cpu time spent up to now is       17.9 secs

     total energy              =   -1386.12771120 Ry
     estimated scf accuracy    <      41.94766353 Ry

     iteration #  3     ecut=    60.00 Ry     beta= 0.70
     Davidson diagonalization with overlap
     ethr =  4.25E-03,  avg # of iterations =  3.6

     total cpu time spent up to now is       24.7 secs

     total energy              =   -1389.30860684 Ry
     estimated scf accuracy    <       0.56553347 Ry

     iteration #  4     ecut=    60.00 Ry     beta= 0.70
     Davidson diagonalization with overlap
     ethr =  1.45E-03,  avg # of iterations =  2.1

     total cpu time spent up to now is       30.0 secs

     total energy              =   -1389.35827638 Ry
     estimated scf accuracy    <       0.06548833 Ry

     iteration #  5     ecut=    60.00 Ry     beta= 0.70
     Davidson diagonalization with overlap
     ethr =  1.68E-04,  avg # of iterations =  3.1

     total cpu time spent up to now is       35.6 secs

     total energy              =   -1389.35782909 Ry
     estimated scf accuracy    <       0.02021409 Ry

     iteration #  6     ecut=    60.00 Ry     beta= 0.70
     Davidson diagonalization with overlap
     ethr =  5.18E-05,  avg # of iterations =  2.6

     total cpu time spent up to now is       42.1 secs

     total energy              =   -1389.36155175 Ry
     estimated scf accuracy    <       0.02497290 Ry

     iteration #  7     ecut=    60.00 Ry     beta= 0.70
     Davidson diagonalization with overlap
     ethr =  5.18E-05,  avg # of iterations =  1.0

     total cpu time spent up to now is       47.2 secs

     total energy              =   -1389.36431522 Ry
     estimated scf accuracy    <       0.00100296 Ry

     iteration #  8     ecut=    60.00 Ry     beta= 0.70
     Davidson diagonalization with overlap
     ethr =  2.57E-06,  avg # of iterations =  6.4

     total cpu time spent up to now is       53.9 secs

     total energy              =   -1389.36451770 Ry
     estimated scf accuracy    <       0.00009342 Ry

     iteration #  9     ecut=    60.00 Ry     beta= 0.70
     Davidson diagonalization with overlap
     ethr =  2.40E-07,  avg # of iterations =  4.1

     total cpu time spent up to now is       61.0 secs

     total energy              =   -1389.36455283 Ry
     estimated scf accuracy    <       0.00000557 Ry

     iteration # 10     ecut=    60.00 Ry     beta= 0.70
     Davidson diagonalization with overlap
     ethr =  1.43E-08,  avg # of iterations =  3.4

     total cpu time spent up to now is       67.7 secs

     total energy              =   -1389.36455332 Ry
     estimated scf accuracy    <       0.00000321 Ry

     iteration # 11     ecut=    60.00 Ry     beta= 0.70
     Davidson diagonalization with overlap
     ethr =  8.23E-09,  avg # of iterations =  1.9

     total cpu time spent up to now is       73.4 secs

     total energy              =   -1389.36455371 Ry
     estimated scf accuracy    <       0.00000019 Ry

     iteration # 12     ecut=    60.00 Ry     beta= 0.70
     Davidson diagonalization with overlap
     ethr =  4.94E-10,  avg # of iterations =  3.4

     total cpu time spent up to now is       79.8 secs

     End of self-consistent calculation

          k = 0.0000 0.0000 0.0000 (  2085 PWs)   bands (ev):

   -87.2263 -47.6341 -47.6341 -47.6341   6.4238  10.4530  10.4530  10.8925
    10.8925  10.8925  12.5135  12.5135  12.5135  14.5511  14.5511  14.8998
    14.8998  14.8998  15.7053  15.7053  26.6389  27.0121  27.0121  27.0121
    27.3495  27.3495  27.3497  27.7544

          k =-0.1000 0.1000-0.1000 (  2028 PWs)   bands (ev):

   -87.2257 -47.6338 -47.6337 -47.6337   6.6060  10.4949  10.4949  10.8477
    10.8858  10.8858  12.5385  12.5609  12.5609  14.5028  14.5028  14.7405
    14.8996  14.8996  15.6938  15.6938  24.3437  26.1055  26.1055  26.4663
    27.5619  27.7322  27.7323  28.6026

          k =-0.2000 0.2000-0.2000 (  2012 PWs)   bands (ev):

   -87.2254 -47.6338 -47.6335 -47.6335   7.1274  10.5911  10.5911  10.7683
    10.8939  10.8939  12.5398  12.6874  12.6874  14.3266  14.3266  14.3695
    14.9215  14.9215  15.6857  15.6857  21.5944  24.9915  24.9915  25.9001
    27.6666  27.6666  28.1224  29.5130

          k =-0.3000 0.3000-0.3000 (  2012 PWs)   bands (ev):

   -87.2254 -47.6339 -47.6334 -47.6334   7.8994  10.6408  10.6408  10.7578
    11.0051  11.0051  12.3551  12.8521  12.8521  14.0248  14.0248  14.0441
    14.9828  14.9828  15.7062  15.7062  19.1765  23.9943  23.9943  25.4318
    27.5346  27.5346  28.5197  31.0741

          k =-0.4000 0.4000-0.4000 (  2033 PWs)   bands (ev):

   -87.2255 -47.6342 -47.6334 -47.6334   8.6942  10.6303  10.6303  10.9038
    11.1851  11.1851  11.9361  13.0053  13.0053  13.7043  13.7043  13.9252
    15.0529  15.0529  15.7391  15.7391  17.3708  23.2951  23.2951  25.1495
    27.4402  27.4402  28.6595  32.4636

          k = 0.5000-0.5000 0.5000 (  2036 PWs)   bands (ev):

   -87.2255 -47.6341 -47.6335 -47.6335   9.0618  10.6209  10.6209  11.1428
    11.2732  11.2732  11.5693  13.0830  13.0830  13.5465  13.5465  13.9187
    15.0840  15.0840  15.7549  15.7549  16.6534  23.0418  23.0418  25.0564
    27.4070  27.4070  28.6910  33.1650

          k = 0.0000 0.2000 0.0000 (  2025 PWs)   bands (ev):

   -87.2256 -47.6338 -47.6337 -47.6337   6.6675  10.4551  10.5611  10.7857
    10.9021  10.9021  12.4111  12.6542  12.6542  14.4656  14.5214  14.8227
    14.8227  14.8536  15.6043  15.7526  24.8606  24.8606  25.7858  26.0163
    26.7407  28.1358  28.1358  28.5293

          k =-0.1000 0.3000-0.1000 (  2015 PWs)   bands (ev):

   -87.2255 -47.6339 -47.6335 -47.6335   7.0790  10.4833  10.6757  10.6844
    10.9010  10.9234  12.3772  12.7861  12.8226  14.3488  14.3837  14.5351
    14.8100  14.9197  15.5233  15.7725  22.4207  23.7487  25.1719  25.7015
    26.8686  28.1363  28.4783  29.1625

          k =-0.2000 0.4000-0.2000 (  2013 PWs)   bands (ev):

   -87.2254 -47.6340 -47.6334 -47.6333   7.7771  10.4992  10.6568  10.7359
    10.9197  11.0518  12.4063  12.8447  13.0139  14.0496  14.1232  14.2054
    14.9067  14.9754  15.5142  15.7849  19.8924  22.8728  24.0018  25.2924
    27.9857  28.4200  28.5658  29.4100

          k =-0.3000 0.5000-0.3000 (  2018 PWs)   bands (ev):

   -87.2254 -47.6341 -47.6333 -47.6333   8.5906  10.4689  10.7067  10.7645
    11.0185  11.2475  12.3064  12.8847  13.1640  13.6717  13.8684  14.0089
    15.0026  15.0366  15.6002  15.7838  17.8367  22.3688  22.9057  25.0662
    28.0602  28.3897  29.4085  30.2186

          k = 0.6000-0.4000 0.6000 (  2013 PWs)   bands (ev):

   -87.2253 -47.6341 -47.6333 -47.6332   9.1381  10.4779  10.6724  10.9090
    11.1320  11.3417  12.0915  13.0248  13.1382  13.5262  13.6565  13.9439
    15.0263  15.1069  15.7327  15.7345  16.6787  22.1270  22.3709  24.9952
    28.0965  28.1233  29.4653  32.1159

          k = 0.5000-0.3000 0.5000 (  2018 PWs)   bands (ev):

   -87.2253 -47.6341 -47.6333 -47.6332   9.0077  10.5241  10.6578  10.9007
    11.1258  11.2366  12.1710  12.9650  13.1620  13.5605  13.6988  13.9397
    15.0019  15.1142  15.6228  15.8149  16.9497  21.8170  22.9301  25.0857
    27.8048  28.1108  29.6217  32.3337

          k = 0.4000-0.2000 0.4000 (  2026 PWs)   bands (ev):

   -87.2255 -47.6341 -47.6335 -47.6334   8.3154  10.5748  10.6592  10.7682
    11.0151  11.0691  12.4329  12.8036  13.0958  13.7806  13.9790  14.0077
    14.9720  15.0333  15.5295  15.8221  18.4783  22.0127  23.9719  25.3572
    27.5879  27.9955  29.7101  30.8856

          k = 0.3000-0.1000 0.3000 (  2018 PWs)   bands (ev):

   -87.2255 -47.6340 -47.6335 -47.6334   7.5138  10.6201  10.6314  10.7115
    10.8626  10.9714  12.5540  12.6590  12.9383  14.1466  14.2304  14.2448
    14.9024  14.9579  15.5259  15.7892  20.7231  22.6183  25.3445  25.8407
    27.4978  27.7069  29.1216  29.1773

          k = 0.2000 0.0000 0.2000 (  2019 PWs)   bands (ev):

   -87.2255 -47.6338 -47.6336 -47.6336   6.9022  10.5245  10.5868  10.7673
    10.8576  10.9182  12.5314  12.5661  12.7527  14.4053  14.4176  14.5730
    14.8281  14.9453  15.5972  15.7493  23.2193  23.5996  26.5048  26.7677
    27.1941  27.4825  27.8545  28.5599

          k = 0.0000 0.4000 0.0000 (  2009 PWs)   bands (ev):

   -87.2254 -47.6340 -47.6334 -47.6334   7.3782  10.3777  10.5194  10.8768
    10.9345  10.9345  12.2196  13.0352  13.0352  14.2967  14.4027  14.6657
    14.6657  14.7898  15.3467  15.7986  22.5379  22.5379  23.4963  25.0986
    25.7498  29.2656  29.2656  30.5773

          k =-0.1000 0.5000-0.1000 (  2015 PWs)   bands (ev):

   -87.2254 -47.6343 -47.6333 -47.6333   7.9812  10.2549  10.4620  10.8994
    10.9517  11.1490  12.2115  13.2074  13.2550  14.1043  14.1938  14.4098
    14.7605  14.8968  15.2688  15.8023  20.4692  21.5659  22.3907  25.1018
    26.2116  29.6350  29.8261  31.4195

          k =-0.2000 0.6000-0.2000 (  2009 PWs)   bands (ev):

   -87.2252 -47.6342 -47.6331 -47.6330   8.7560  10.1551  10.5098  10.8494
    10.9939  11.4134  12.3188  13.2330  13.4231  13.6360  13.9914  14.2187
    14.8728  15.0196  15.4172  15.7954  18.2908  20.9967  21.3193  25.0565
    27.6554  29.6436  29.8929  31.5757

          k = 0.7000-0.3000 0.7000 (  2019 PWs)   bands (ev):

   -87.2253 -47.6343 -47.6331 -47.6331   9.3736  10.1656  10.6017  10.7925
    11.0802  11.5617  12.4718  13.1850  13.2086  13.5559  13.8380  14.0886
    14.8619  15.1459  15.6971  15.7562  16.7554  20.4039  20.9974  25.0482
    29.2558  29.5665  29.6386  31.8219

          k = 0.6000-0.2000 0.6000 (  2013 PWs)   bands (ev):

   -87.2252 -47.6342 -47.6331 -47.6330   9.4073  10.3216  10.7073  10.7498
    11.0629  11.4532  12.6442  12.9683  13.2230  13.6928  13.6993  13.9974
    14.8429  15.1570  15.5863  15.8662  16.6343  19.8500  21.6306  25.1341
    29.1163  29.1459  30.7929  32.6056

          k = 0.5000-0.1000 0.5000 (  2018 PWs)   bands (ev):

   -87.2253 -47.6342 -47.6332 -47.6331   8.9121  10.4338  10.7310  10.7325
    11.0068  11.1639  12.7387  12.8355  13.3488  13.5558  13.9013  14.0000
    14.8652  15.1468  15.3457  15.8987  17.9036  19.8163  22.7663  25.3238
    28.7030  28.8247  30.2578  30.9732

          k = 0.4000 0.0000 0.4000 (  2013 PWs)   bands (ev):

   -87.2253 -47.6341 -47.6333 -47.6332   8.1695  10.5263  10.7104  10.7183
    10.9137  11.0088  12.6834  12.7229  13.1801  13.8243  14.0879  14.1043
    14.9218  15.0162  15.3586  15.8584  19.6921  20.4893  24.1597  25.5996
    28.2854  28.3049  29.3234  29.4645

          k = 0.0000 0.6000 0.0000 (  2028 PWs)   bands (ev):

   -87.2255 -47.6345 -47.6332 -47.6332   8.4865  10.0313  10.3240  10.9870
    10.9870  11.3736  12.0831  13.4593  13.4593  14.0912  14.2048  14.7016
    14.7016  14.7157  15.0846  15.8129  20.4236  20.4236  20.5809  24.7328
    25.5553  31.0095  31.0095  33.1104

          k =-0.1000 0.7000-0.1000 (  2028 PWs)   bands (ev):

   -87.2254 -47.6346 -47.6331 -47.6331   9.1859   9.8826  10.2859  10.9776
    11.0158  11.6786  12.0851  13.5182  13.5360  13.7521  14.1414  14.5298
    14.7963  15.0180  15.2562  15.8394  18.5844  19.6612  19.7404  24.9307
    25.9643  31.5081  31.6055  33.9367

          k = 0.8000-0.2000 0.8000 (  2022 PWs)   bands (ev):

   -87.2253 -47.6345 -47.6330 -47.6329   9.6961   9.9617  10.3414  10.9211
    11.0590  11.9241  12.2274  13.1292  13.5668  13.7392  14.0122  14.4083
    14.6895  15.2714  15.7033  15.9276  16.8913  18.8144  19.5246  25.0585
    27.4013  31.3128  31.3205  33.7923

          k = 0.7000-0.1000 0.7000 (  2026 PWs)   bands (ev):

   -87.2253 -47.6344 -47.6331 -47.6329   9.6649  10.2958  10.4584  10.8514
    11.0375  11.8622  12.5441  12.8793  13.5859  13.7876  13.9159  14.2240
    14.6397  15.2010  15.7822  15.9276  16.5377  18.1211  20.1543  25.1403
    29.3321  30.6452  30.8554  32.5690

          k = 0.6000-0.0000 0.6000 (  2023 PWs)   bands (ev):

   -87.2253 -47.6343 -47.6332 -47.6330   9.4369  10.3715  10.6271  10.7896
    10.9608  11.4954  12.8320  12.8682  13.4443  13.7205  13.8255  14.0516
    14.7196  15.0661  15.5027  15.9502  17.4335  18.1779  21.3472  25.2383
    29.8033  30.1306  30.6002  32.0086

          k = 0.0000 0.8000 0.0000 (  2020 PWs)   bands (ev):

   -87.2253 -47.6347 -47.6329 -47.6329   9.6702   9.7978  10.2208  11.0385
    11.0385  11.8597  11.9977  13.5384  13.5816  13.5816  14.2027  14.6418
    14.9495  15.3202  15.3202  15.9281  18.1561  18.6238  18.6238  24.6541
    25.4940  33.2697  33.2697  34.7679

          k = 0.9000-0.1000 0.9000 (  2034 PWs)   bands (ev):

   -87.2254 -47.6347 -47.6330 -47.6329   9.6312  10.0487  10.5168  11.0209
    11.0529  11.7798  12.3176  13.0397  13.5983  13.7140  14.1638  14.5902
    14.7780  15.6833  15.8146  16.1697  17.0306  17.7693  18.2434  24.9156
    25.8891  33.2118  33.6556  35.5118

          k = 0.8000 0.0000 0.8000 (  2043 PWs)   bands (ev):

   -87.2255 -47.6347 -47.6331 -47.6329   9.6592  10.2076  10.5379  10.9474
    11.0374  12.1202  12.3816  12.6841  13.6733  13.8444  14.0559  14.5030
    14.5859  15.7101  15.9785  16.0051  16.7802  17.0376  18.8736  25.0830
    27.3398  32.0804  32.9038  33.3851

          k = 0.0000-1.0000 0.0000 (  2044 PWs)   bands (ev):

   -87.2255 -47.6349 -47.6330 -47.6330   9.5715   9.9972  11.0377  11.0603
    11.0603  11.2872  12.5007  13.0465  13.5682  13.5682  14.2150  14.6105
    14.9137  15.9756  15.9756  16.2823  16.8641  17.6171  17.6171  24.6562
    25.4796  34.6711  35.5474  35.5474

          k =-0.2000 0.4000 0.0000 (  2012 PWs)   bands (ev):

   -87.2254 -47.6340 -47.6334 -47.6334   7.5845  10.4507  10.5821  10.7944
    10.8966  11.0051  12.3543  12.9181  13.0551  14.1681  14.2386  14.3503
    14.8361  14.9269  15.4105  15.8015  21.2707  21.8099  24.1438  25.9862
    26.6015  28.3537  29.0550  30.4424

          k =-0.3000 0.5000-0.1000 (  2019 PWs)   bands (ev):

   -87.2254 -47.6342 -47.6333 -47.6332   8.3242  10.3627  10.6268  10.8001
    10.9287  11.1746  12.4400  12.9888  13.2525  13.7903  14.0510  14.1397
    14.9057  15.0142  15.3790  15.8291  19.1031  20.9532  22.9724  25.7576
    27.6068  28.5373  29.3902  31.0936

          k = 0.6000-0.4000 0.8000 (  2028 PWs)   bands (ev):

   -87.2254 -47.6343 -47.6333 -47.6332   9.0616  10.3101  10.6914  10.7750
    11.0285  11.3586  12.5149  12.9813  13.3131  13.5146  13.8509  14.0206
    14.8897  15.1483  15.5056  15.8380  17.2837  20.6416  21.9337  25.5145
    27.9605  29.4313  29.9453  31.3416

          k = 0.5000-0.3000 0.7000 (  2018 PWs)   bands (ev):

   -87.2253 -47.6342 -47.6333 -47.6331   9.3853  10.2988  10.7055  10.7809
    11.1102  11.4454  12.5158  13.0141  13.1572  13.5661  13.7463  13.9781
    14.8779  15.2175  15.6344  15.8151  16.5019  20.6675  21.4120  25.4336
    27.9814  29.6312  30.4971  32.3472

          k =-0.2000 0.6000 0.0000 (  2024 PWs)   bands (ev):

   -87.2254 -47.6344 -47.6332 -47.6332   8.6326  10.0905  10.4207  10.9176
    10.9755  11.3911  12.2278  13.3605  13.4528  13.8002  14.1259  14.3251
    14.8232  14.9594  15.2508  15.8162  19.3742  20.0084  21.3036  25.5596
    26.2324  29.6917  30.8366  32.9393

          k = 0.7000-0.3000 0.9000 (  2025 PWs)   bands (ev):

   -87.2254 -47.6345 -47.6331 -47.6330   9.3411  10.0065  10.4478  10.8929
    11.0246  11.6319  12.3616  13.3592  13.4217  13.5652  14.0066  14.2324
    14.7397  15.2085  15.4653  15.8594  17.6258  19.3534  20.3461  25.7566
    27.4894  29.3634  31.3676  33.0642

          k = 0.6000-0.2000 0.8000 (  2022 PWs)   bands (ev):

   -87.2253 -47.6344 -47.6331 -47.6330   9.6802  10.0930  10.5092  10.8662
    11.0866  11.7317  12.6005  13.0120  13.4222  13.6097  13.9549  14.1086
    14.6755  15.3639  15.7038  15.9330  16.4163  19.0399  20.0019  25.8262
    28.7861  29.5426  31.2760  32.0947

          k = 0.5000-0.1000 0.7000 (  2022 PWs)   bands (ev):

   -87.2253 -47.6344 -47.6332 -47.6330   9.5303  10.1996  10.5844  10.8617
    11.0162  11.5780  12.7344  12.9802  13.3764  13.6085  13.9461  14.0320
    14.6911  15.2677  15.5270  15.9377  16.9392  18.7293  20.6837  25.9950
    28.4905  29.9393  31.0977  31.5803

          k = 0.4000 0.0000 0.6000 (  2013 PWs)   bands (ev):

   -87.2253 -47.6342 -47.6332 -47.6330   9.0085  10.2496  10.6239  10.8532
    10.9331  11.3376  12.5822  13.0938  13.4428  13.5317  13.9877  14.0500
    14.7934  15.2141  15.2853  15.8919  18.2759  19.1260  21.7937  26.1876
    27.8596  28.8145  30.3769  32.0387

          k = 0.8000-0.2000 1.0000 (  2020 PWs)   bands (ev):

   -87.2253 -47.6346 -47.6329 -47.6329   9.7325   9.8426  10.2683  10.9828
    11.0513  11.9739  12.0675  13.2559  13.5714  13.7395  14.1201  14.4799
    14.7119  15.3770  15.5541  15.9529  17.6625  18.4181  18.9452  25.4452
    26.0926  31.2927  33.0295  34.4380

          k = 0.7000-0.1000 0.9000 (  2023 PWs)   bands (ev):

   -87.2253 -47.6345 -47.6329 -47.6328   9.7353  10.1885  10.3226  10.9867
    11.0788  12.1677  12.2572  12.8749  13.5815  13.8401  14.0645  14.2889
    14.6155  15.5824  15.9326  16.2896  16.4699  17.7402  18.6296  25.7952
    27.4031  30.6800  32.4542  33.4609

          k = 0.6000 0.0000 0.8000 (  2024 PWs)   bands (ev):

   -87.2253 -47.6344 -47.6331 -47.6328   9.7298  10.2400  10.4178  10.9754
    11.0190  11.9468  12.6277  12.8155  13.6095  13.7166  14.0407  14.1283
    14.5851  15.4433  15.7342  16.0371  16.9192  17.3601  19.4485  25.9450
    29.4170  29.8540  30.7012  32.5173

          k =-0.2000-1.0000 0.0000 (  2028 PWs)   bands (ev):

   -87.2254 -47.6347 -47.6329 -47.6329   9.6346  10.1031  10.6030  11.0395
    11.0854  11.8234  12.6017  12.6760  13.5539  13.8417  14.1387  14.5036
    14.6746  15.8082  16.0535  16.5228  16.6099  17.5450  17.6555  25.4391
    26.0577  32.4559  33.7069  35.0001

          k = 0.6000-0.2000 1.0000 (  2036 PWs)   bands (ev):

   -87.2255 -47.6346 -47.6331 -47.6329   9.8067   9.9534  10.4201  10.9593
    11.0601  11.8555  12.5162  13.0735  13.5425  13.5674  14.0368  14.1707
    14.6139  15.4697  15.6723  16.0251  17.1165  17.9271  19.2997  27.0621
    27.6686  29.0235  31.8581  32.6646

          k = 0.5000-0.1000 0.9000 (  2016 PWs)   bands (ev):

   -87.2252 -47.6344 -47.6330 -47.6327   9.8975  10.0064  10.4096  10.9925
    11.1051  11.9797  12.7024  12.8449  13.5582  13.5953  14.0051  14.1442
    14.5931  15.5621  15.9672  16.2515  16.3748  17.7687  18.6752  27.2463
    28.4995  29.7101  29.8596  33.2274

          k =-0.4000-1.0000 0.0000 (  2024 PWs)   bands (ev):

   -87.2253 -47.6344 -47.6329 -47.6328   9.8266  10.1533  10.3123  11.0414
    11.1290  12.2345  12.4742  12.7686  13.5216  13.8684  13.9686  14.1484
    14.6161  15.6572  16.1700  16.2677  16.9106  17.2916  17.6742  27.3990
    27.6160  29.8405  30.5476  34.4463

     the Fermi energy is    15.9089 ev

!    total energy              =   -1389.36455372 Ry

     total all-electron energy =    -43178.864335 Ry
     estimated scf accuracy    <       0.00000005 Ry
     smearing contrib. (-TS)   =      -0.00412644 Ry
     internal energy E=F+TS    =   -1389.36042728 Ry

     The total energy is F=E-TS. E is the sum of the following terms:
     one-electron contribution =    -252.18675029 Ry
     hartree contribution      =     168.00113085 Ry
     xc contribution           =    -103.24894195 Ry
     ewald contribution        =    -336.17890254 Ry
     one-center paw contrib.   =    -865.74696336 Ry

     convergence has been achieved in  12 iterations

     Writing output data file ././cunipt.save/

     init_run     :      2.71s CPU      2.77s WALL (       1 calls)
     electrons    :     75.63s CPU     76.83s WALL (       1 calls)

     Called by init_run:
     wfcinit      :      1.65s CPU      1.66s WALL (       1 calls)
     potinit      :      0.33s CPU      0.34s WALL (       1 calls)
     hinit0       :      0.67s CPU      0.67s WALL (       1 calls)

     Called by electrons:
     c_bands      :     63.17s CPU     63.52s WALL (      12 calls)
     sum_band     :      7.88s CPU      8.33s WALL (      12 calls)
     v_of_rho     :      0.16s CPU      0.17s WALL (      13 calls)
     newd         :      0.58s CPU      0.96s WALL (      13 calls)
     PAW_pot      :      4.16s CPU      4.22s WALL (      13 calls)
     mix_rho      :      0.02s CPU      0.02s WALL (      12 calls)

     Called by c_bands:
     init_us_2    :      0.71s CPU      0.72s WALL (    1175 calls)
     cegterg      :     60.69s CPU     61.01s WALL (     564 calls)

     Called by *egterg:
     cdiaghg      :      1.80s CPU      1.81s WALL (    2487 calls)
     h_psi        :     34.08s CPU     34.30s WALL (    2534 calls)
     s_psi        :      5.60s CPU      5.62s WALL (    2534 calls)
     g_psi        :      0.22s CPU      0.22s WALL (    1923 calls)

     Called by h_psi:
     h_psi:calbec :      5.21s CPU      5.23s WALL (    2534 calls)
     vloc_psi     :     23.10s CPU     23.26s WALL (    2534 calls)
     add_vuspsi   :      5.64s CPU      5.67s WALL (    2534 calls)

     General routines
     calbec       :      7.19s CPU      7.23s WALL (    3098 calls)
     fft          :      0.07s CPU      0.07s WALL (     143 calls)
     ffts         :      0.01s CPU      0.01s WALL (      12 calls)
     fftw         :     24.02s CPU     24.18s WALL (   97040 calls)

     Parallel routines

     PWSCF        :   1m18.57s CPU   1m19.86s WALL


   This run was terminated on:  20:29:28  13Sep2024            

=------------------------------------------------------------------------------=
   JOB DONE.
=------------------------------------------------------------------------------=
