
     Program PWSCF v.6.7MaX starts on 13Sep2024 at 21: 0:54 

     This program is part of the open-source Quantum ESPRESSO suite
     for quantum simulation of materials; please cite
         "P. Giannozzi et al., J. Phys.:Condens. Matter 21 395502 (2009);
         "P. Giannozzi et al., J. Phys.:Condens. Matter 29 465901 (2017);
          URL http://www.quantum-espresso.org", 
     in publications or presentations arising from this work. More details at
     http://www.quantum-espresso.org/quote

     Parallel version (MPI), running on     1 processors

     MPI processes distributed on     1 nodes
     Waiting for input...
     Reading input from standard input

     Current dimensions of program PWSCF are:
     Max number of different atomic species (ntypx) = 10
     Max number of k-points (npk) =  40000
     Max angular momentum in pseudopotentials (lmaxx) =  3
     file Cu.upf: wavefunction(s)  4S 3D renormalized
     file Ni.upf: wavefunction(s)  3P 3D renormalized
     file Pt.upf: wavefunction(s)  6S 5D renormalized

     Subspace diagonalization in iterative solution of the eigenvalue problem:
     a serial algorithm will be used


     G-vector sticks info
     --------------------
     sticks:   dense  smooth     PW     G-vecs:    dense   smooth      PW
     Sum        1099    1099    313                23829    23829    3839



     bravais-lattice index     =            2
     lattice parameter (alat)  =      11.5000  a.u.
     unit-cell volume          =     380.2188 (a.u.)^3
     number of atoms/cell      =            3
     number of atomic types    =            3
     number of electrons       =        39.00
     number of Kohn-Sham states=           28
     kinetic-energy cutoff     =      60.0000  Ry
     charge density cutoff     =     240.0000  Ry
     scf convergence threshold =      1.0E-07
     mixing beta               =       0.7000
     number of iterations used =            8  plain     mixing
     Exchange-correlation= SLA  PW   PBX  PBC
                           (   1   4   3   4   0   0   0)

     celldm(1)=  11.500000  celldm(2)=   0.000000  celldm(3)=   0.000000
     celldm(4)=   0.000000  celldm(5)=   0.000000  celldm(6)=   0.000000

     crystal axes: (cart. coord. in units of alat)
               a(1) = (  -0.500000   0.000000   0.500000 )  
               a(2) = (   0.000000   0.500000   0.500000 )  
               a(3) = (  -0.500000   0.500000   0.000000 )  

     reciprocal axes: (cart. coord. in units 2 pi/alat)
               b(1) = ( -1.000000 -1.000000  1.000000 )  
               b(2) = (  1.000000  1.000000  1.000000 )  
               b(3) = ( -1.000000  1.000000 -1.000000 )  


     PseudoPot. # 1 for Cu read from file:
     ././Cu.upf
     MD5 check sum: cfffd1f38ee05704b3e17f46f1730a6f
     Pseudo is Projector augmented-wave + core cor, Zval = 11.0
     Generated using &quot;atomic&quot; code by A. Dal Corso  v.6.3
     Shape of augmentation charge: PSQ
     Using radial grid of 1199 points,  6 beta functions with: 
                l(1) =   0
                l(2) =   0
                l(3) =   1
                l(4) =   1
                l(5) =   2
                l(6) =   2
     Q(r) pseudized with 0 coefficients 


     PseudoPot. # 2 for Ni read from file:
     ././Ni.upf
     MD5 check sum: 6e86b733589c3ad8389697b807d86aa7
     Pseudo is Projector augmented-wave + core cor, Zval = 18.0
     Generated using &quot;atomic&quot; code by A. Dal Corso  v.6.3
     Shape of augmentation charge: PSQ
     Using radial grid of 1195 points,  6 beta functions with: 
                l(1) =   0
                l(2) =   0
                l(3) =   1
                l(4) =   1
                l(5) =   2
                l(6) =   2
     Q(r) pseudized with 0 coefficients 


     PseudoPot. # 3 for Pt read from file:
     ././Pt.upf
     MD5 check sum: c5224e9cd7a5e36e81f2def9f50bb494
     Pseudo is Projector augmented-wave + core cor, Zval = 10.0
     Generated using &quot;atomic&quot; code by A. Dal Corso  v.6.3
     Shape of augmentation charge: PSQ
     Using radial grid of 1277 points,  6 beta functions with: 
                l(1) =   0
                l(2) =   0
                l(3) =   1
                l(4) =   1
                l(5) =   2
                l(6) =   2
     Q(r) pseudized with 0 coefficients 


     atomic species   valence    mass     pseudopotential
        Cu            11.00    63.54600     Cu( 1.00)
        Ni            18.00    58.69300     Ni( 1.00)
        Pt            10.00   195.08000     Pt( 1.00)

     24 Sym. Ops. (no inversion) found



   Cartesian axes

     site n.     atom                  positions (alat units)
         1           Cu  tau(   1) = (   0.0000000   0.0000000   0.0000000  )
         2           Ni  tau(   2) = (   0.5000000   0.5000000   0.5000000  )
         3           Pt  tau(   3) = (   0.2500000   0.2500000   0.2500000  )

     number of k points=    47  Gaussian smearing, width (Ry)=  0.0100
                       cart. coord. in units 2pi/alat
        k(    1) = (   0.0000000   0.0000000   0.0000000), wk =   0.0020000
        k(    2) = (  -0.1000000   0.1000000  -0.1000000), wk =   0.0160000
        k(    3) = (  -0.2000000   0.2000000  -0.2000000), wk =   0.0160000
        k(    4) = (  -0.3000000   0.3000000  -0.3000000), wk =   0.0160000
        k(    5) = (  -0.4000000   0.4000000  -0.4000000), wk =   0.0160000
        k(    6) = (   0.5000000  -0.5000000   0.5000000), wk =   0.0080000
        k(    7) = (   0.0000000   0.2000000   0.0000000), wk =   0.0120000
        k(    8) = (  -0.1000000   0.3000000  -0.1000000), wk =   0.0480000
        k(    9) = (  -0.2000000   0.4000000  -0.2000000), wk =   0.0480000
        k(   10) = (  -0.3000000   0.5000000  -0.3000000), wk =   0.0480000
        k(   11) = (   0.6000000  -0.4000000   0.6000000), wk =   0.0480000
        k(   12) = (   0.5000000  -0.3000000   0.5000000), wk =   0.0480000
        k(   13) = (   0.4000000  -0.2000000   0.4000000), wk =   0.0480000
        k(   14) = (   0.3000000  -0.1000000   0.3000000), wk =   0.0480000
        k(   15) = (   0.2000000   0.0000000   0.2000000), wk =   0.0240000
        k(   16) = (   0.0000000   0.4000000   0.0000000), wk =   0.0120000
        k(   17) = (  -0.1000000   0.5000000  -0.1000000), wk =   0.0480000
        k(   18) = (  -0.2000000   0.6000000  -0.2000000), wk =   0.0480000
        k(   19) = (   0.7000000  -0.3000000   0.7000000), wk =   0.0480000
        k(   20) = (   0.6000000  -0.2000000   0.6000000), wk =   0.0480000
        k(   21) = (   0.5000000  -0.1000000   0.5000000), wk =   0.0480000
        k(   22) = (   0.4000000   0.0000000   0.4000000), wk =   0.0240000
        k(   23) = (   0.0000000   0.6000000   0.0000000), wk =   0.0120000
        k(   24) = (  -0.1000000   0.7000000  -0.1000000), wk =   0.0480000
        k(   25) = (   0.8000000  -0.2000000   0.8000000), wk =   0.0480000
        k(   26) = (   0.7000000  -0.1000000   0.7000000), wk =   0.0480000
        k(   27) = (   0.6000000  -0.0000000   0.6000000), wk =   0.0240000
        k(   28) = (   0.0000000   0.8000000   0.0000000), wk =   0.0120000
        k(   29) = (   0.9000000  -0.1000000   0.9000000), wk =   0.0480000
        k(   30) = (   0.8000000   0.0000000   0.8000000), wk =   0.0240000
        k(   31) = (   0.0000000  -1.0000000   0.0000000), wk =   0.0060000
        k(   32) = (  -0.2000000   0.4000000   0.0000000), wk =   0.0480000
        k(   33) = (  -0.3000000   0.5000000  -0.1000000), wk =   0.0960000
        k(   34) = (   0.6000000  -0.4000000   0.8000000), wk =   0.0960000
        k(   35) = (   0.5000000  -0.3000000   0.7000000), wk =   0.0480000
        k(   36) = (  -0.2000000   0.6000000   0.0000000), wk =   0.0480000
        k(   37) = (   0.7000000  -0.3000000   0.9000000), wk =   0.0960000
        k(   38) = (   0.6000000  -0.2000000   0.8000000), wk =   0.0960000
        k(   39) = (   0.5000000  -0.1000000   0.7000000), wk =   0.0960000
        k(   40) = (   0.4000000   0.0000000   0.6000000), wk =   0.0480000
        k(   41) = (   0.8000000  -0.2000000   1.0000000), wk =   0.0480000
        k(   42) = (   0.7000000  -0.1000000   0.9000000), wk =   0.0960000
        k(   43) = (   0.6000000   0.0000000   0.8000000), wk =   0.0480000
        k(   44) = (  -0.2000000  -1.0000000   0.0000000), wk =   0.0240000
        k(   45) = (   0.6000000  -0.2000000   1.0000000), wk =   0.0480000
        k(   46) = (   0.5000000  -0.1000000   0.9000000), wk =   0.0480000
        k(   47) = (  -0.4000000  -1.0000000   0.0000000), wk =   0.0240000

     Dense  grid:    23829 G-vectors     FFT dimensions: (  45,  45,  45)

     Estimated max dynamical RAM per process >     153.00 MB

     Check: negative core charge=   -0.000003

     Initial potential from superposition of free atoms

     starting charge   38.99935, renormalised to   39.00000
     Starting wfcs are   28 randomized atomic wfcs
     Checking if some PAW data can be deallocated... 

     total cpu time spent up to now is        4.6 secs

     Self-consistent Calculation

     iteration #  1     ecut=    60.00 Ry     beta= 0.70
     Davidson diagonalization with overlap
     ethr =  1.00E-02,  avg # of iterations =  6.3

     total cpu time spent up to now is       17.7 secs

     total energy              =   -1387.82484151 Ry
     estimated scf accuracy    <       2.04280663 Ry

     iteration #  2     ecut=    60.00 Ry     beta= 0.70
     Davidson diagonalization with overlap
     ethr =  5.24E-03,  avg # of iterations =  3.3

     total cpu time spent up to now is       33.3 secs

     total energy              =   -1386.06485106 Ry
     estimated scf accuracy    <      59.02679624 Ry

     iteration #  3     ecut=    60.00 Ry     beta= 0.70
     Davidson diagonalization with overlap
     ethr =  5.24E-03,  avg # of iterations =  4.3

     total cpu time spent up to now is       46.0 secs

     total energy              =   -1389.37622950 Ry
     estimated scf accuracy    <       0.70927308 Ry

     iteration #  4     ecut=    60.00 Ry     beta= 0.70
     Davidson diagonalization with overlap
     ethr =  1.82E-03,  avg # of iterations =  1.0

     total cpu time spent up to now is       54.8 secs

     total energy              =   -1389.41797743 Ry
     estimated scf accuracy    <       0.12758956 Ry

     iteration #  5     ecut=    60.00 Ry     beta= 0.70
     Davidson diagonalization with overlap
     ethr =  3.27E-04,  avg # of iterations =  1.6

     total cpu time spent up to now is       64.2 secs

     total energy              =   -1389.42064566 Ry
     estimated scf accuracy    <       0.03071830 Ry

     iteration #  6     ecut=    60.00 Ry     beta= 0.70
     Davidson diagonalization with overlap
     ethr =  7.88E-05,  avg # of iterations =  2.5

     total cpu time spent up to now is       73.7 secs

     total energy              =   -1389.42388607 Ry
     estimated scf accuracy    <       0.00962798 Ry

     iteration #  7     ecut=    60.00 Ry     beta= 0.70
     Davidson diagonalization with overlap
     ethr =  2.47E-05,  avg # of iterations =  3.0

     total cpu time spent up to now is       83.7 secs

     total energy              =   -1389.42490177 Ry
     estimated scf accuracy    <       0.00976138 Ry

     iteration #  8     ecut=    60.00 Ry     beta= 0.70
     Davidson diagonalization with overlap
     ethr =  2.47E-05,  avg # of iterations =  1.1

     total cpu time spent up to now is       92.3 secs

     total energy              =   -1389.42579636 Ry
     estimated scf accuracy    <       0.00140937 Ry

     iteration #  9     ecut=    60.00 Ry     beta= 0.70
     Davidson diagonalization with overlap
     ethr =  3.61E-06,  avg # of iterations =  5.4

     total cpu time spent up to now is      102.6 secs

     total energy              =   -1389.42602498 Ry
     estimated scf accuracy    <       0.00012163 Ry

     iteration # 10     ecut=    60.00 Ry     beta= 0.70
     Davidson diagonalization with overlap
     ethr =  3.12E-07,  avg # of iterations =  4.3

     total cpu time spent up to now is      114.0 secs

     total energy              =   -1389.42606140 Ry
     estimated scf accuracy    <       0.00004608 Ry

     iteration # 11     ecut=    60.00 Ry     beta= 0.70
     Davidson diagonalization with overlap
     ethr =  1.18E-07,  avg # of iterations =  1.3

     total cpu time spent up to now is      122.3 secs

     total energy              =   -1389.42605624 Ry
     estimated scf accuracy    <       0.00003019 Ry

     iteration # 12     ecut=    60.00 Ry     beta= 0.70
     Davidson diagonalization with overlap
     ethr =  7.74E-08,  avg # of iterations =  1.1

     total cpu time spent up to now is      130.4 secs

     total energy              =   -1389.42605796 Ry
     estimated scf accuracy    <       0.00000232 Ry

     iteration # 13     ecut=    60.00 Ry     beta= 0.70
     Davidson diagonalization with overlap
     ethr =  5.94E-09,  avg # of iterations =  2.8

     total cpu time spent up to now is      142.2 secs

     End of self-consistent calculation

          k = 0.0000 0.0000 0.0000 (  2975 PWs)   bands (ev):

   -93.6162 -54.0073 -54.0073 -54.0073   2.2245   5.7852   5.7852   5.8834
     5.8834   5.8834   6.8942   6.8942   6.8942   7.9797   7.9797   8.3236
     8.3236   8.3236   8.7197   8.7197  16.0748  17.5039  17.5039  17.5039
    17.6120  17.6120  17.6121  18.4557

          k =-0.1000 0.1000-0.1000 (  2981 PWs)   bands (ev):

   -93.6162 -54.0074 -54.0073 -54.0073   2.3552   5.8027   5.8027   5.8530
     5.8908   5.8908   6.9057   6.9172   6.9172   7.9694   7.9694   8.2423
     8.3071   8.3071   8.7192   8.7192  15.0539  16.3965  16.6375  16.6375
    18.3749  18.4053  18.4057  18.8586

          k =-0.2000 0.2000-0.2000 (  2956 PWs)   bands (ev):

   -93.6160 -54.0072 -54.0072 -54.0072   2.7339   5.7915   5.8152   5.8152
     5.9490   5.9490   6.9065   6.9806   6.9806   7.9094   7.9094   8.0453
     8.2875   8.2875   8.7220   8.7220  12.9525  15.8110  15.8110  16.4250
    18.2890  18.4510  18.4510  19.1903

          k =-0.3000 0.3000-0.3000 (  2962 PWs)   bands (ev):

   -93.6161 -54.0073 -54.0072 -54.0072   3.3075   5.7594   5.8016   5.8016
     6.0645   6.0645   6.8204   7.0703   7.0703   7.7654   7.7654   7.8420
     8.3117   8.3117   8.7299   8.7299  11.1127  15.1343  15.1343  16.5009
    17.7489  18.1570  18.1570  20.5000

          k =-0.4000 0.4000-0.4000 (  2974 PWs)   bands (ev):

   -93.6162 -54.0075 -54.0072 -54.0072   3.9243   5.7857   5.7857   5.8219
     6.1803   6.1803   6.5898   7.1700   7.1700   7.5840   7.5840   7.7146
     8.3590   8.3590   8.7369   8.7369   9.7799  14.6802  14.6802  16.5858
    17.3596  17.9391  17.9391  22.2205

          k = 0.5000-0.5000 0.5000 (  2998 PWs)   bands (ev):

   -93.6163 -54.0075 -54.0074 -54.0074   4.2254   5.7792   5.7792   5.9616
     6.2309   6.2309   6.3523   7.2356   7.2356   7.4786   7.4786   7.6692
     8.3821   8.3821   8.7392   8.7392   9.2749  14.5189  14.5189  16.6389
    17.2013  17.8627  17.8627  23.2045

          k = 0.0000 0.2000 0.0000 (  2978 PWs)   bands (ev):

   -93.6162 -54.0074 -54.0072 -54.0072   2.3993   5.7623   5.8414   5.8481
     5.8941   5.8941   6.8314   6.9686   6.9686   7.9605   7.9760   8.2449
     8.2930   8.2930   8.6745   8.7499  15.7092  15.7284  15.7284  16.2546
    18.0806  18.3622  19.2858  19.2858

          k =-0.1000 0.3000-0.1000 (  2960 PWs)   bands (ev):

   -93.6160 -54.0073 -54.0072 -54.0072   2.6976   5.7076   5.8312   5.8710
     5.9097   5.9621   6.8040   7.0387   7.0566   7.9093   7.9519   8.1066
     8.2719   8.2772   8.6402   8.7656  13.6534  14.9228  15.4362  16.4504
    17.7688  18.4997  19.3717  19.4464

          k =-0.2000 0.4000-0.2000 (  2973 PWs)   bands (ev):

   -93.6161 -54.0074 -54.0073 -54.0072   3.2130   5.6418   5.8405   5.8520
     5.9647   6.0923   6.8147   7.0775   7.1608   7.7618   7.8669   7.9092
     8.2849   8.3018   8.6358   8.7756  11.6957  14.3196  14.7907  16.3892
    18.3616  18.5812  19.0871  19.1719

          k =-0.3000 0.5000-0.3000 (  2975 PWs)   bands (ev):

   -93.6162 -54.0074 -54.0073 -54.0072   3.8381   5.6123   5.8268   5.8643
     6.0490   6.2165   6.7782   7.1047   7.2594   7.5591   7.7125   7.7685
     8.3280   8.3486   8.6710   8.7725  10.1482  13.9992  14.1236  16.2822
    18.1743  18.7528  18.7878  20.1681

          k = 0.6000-0.4000 0.6000 (  2988 PWs)   bands (ev):

   -93.6163 -54.0074 -54.0073 -54.0073   4.2875   5.6377   5.8055   5.9340
     6.0852   6.2746   6.6647   7.1891   7.2636   7.4721   7.5647   7.6899
     8.3514   8.3869   8.7337   8.7437   9.3068  13.6189  14.0286  16.3153
    17.8804  18.4433  18.8948  21.8222

          k = 0.5000-0.3000 0.5000 (  2988 PWs)   bands (ev):

   -93.6163 -54.0075 -54.0073 -54.0073   4.1804   5.6623   5.7955   5.8876
     6.1254   6.2222   6.7138   7.1380   7.2810   7.4892   7.5987   7.7052
     8.3169   8.4066   8.6818   8.7801   9.4982  13.3945  14.4251  16.4939
    17.6336  18.1997  19.2174  21.9963

          k = 0.4000-0.2000 0.4000 (  2968 PWs)   bands (ev):

   -93.6161 -54.0074 -54.0073 -54.0072   3.6251   5.6688   5.7980   5.8449
     6.0936   6.1036   6.8523   7.0337   7.2306   7.6221   7.7664   7.8002
     8.2781   8.3707   8.6350   8.7925  10.6221  13.4866  15.1398  16.8094
    17.4980  18.0755  19.5954  20.3543

          k = 0.3000-0.1000 0.3000 (  2979 PWs)   bands (ev):

   -93.6162 -54.0074 -54.0073 -54.0073   3.0180   5.7149   5.8057   5.8513
     5.9663   6.0170   6.9030   6.9565   7.1324   7.8097   7.9003   7.9600
     8.2661   8.3072   8.6366   8.7803  12.3311  13.8502  16.0792  17.1115
    17.5993  18.0208  18.9709  19.7682

          k = 0.2000 0.0000 0.2000 (  2984 PWs)   bands (ev):

   -93.6162 -54.0074 -54.0074 -54.0073   2.5693   5.7874   5.8017   5.8520
     5.9001   5.9302   6.8953   6.9139   7.0242   7.9289   7.9595   8.1388
     8.2856   8.2889   8.6719   8.7552  14.3499  14.4345  16.9589  17.0363
    17.7799  18.1612  18.2862  19.1329

          k = 0.0000 0.4000 0.0000 (  2974 PWs)   bands (ev):

   -93.6162 -54.0073 -54.0073 -54.0073   2.9139   5.5863   5.8083   5.9234
     5.9234   6.0307   6.7055   7.1680   7.1680   7.8903   7.9529   8.1212
     8.2410   8.2410   8.5579   8.7770  14.0603  14.0603  14.2274  15.3529
    16.9273  19.9635  20.2033  20.2034

          k =-0.1000 0.5000-0.1000 (  2965 PWs)   bands (ev):

   -93.6161 -54.0074 -54.0073 -54.0072   3.3589   5.4741   5.8054   5.9216
     5.9381   6.1736   6.6857   7.2615   7.2839   7.7693   7.9132   8.0046
     8.2672   8.2702   8.5219   8.7835  12.2667  13.3922  13.6194  15.6490
    16.9783  20.2037  20.4011  20.5211

          k =-0.2000 0.6000-0.2000 (  2983 PWs)   bands (ev):

   -93.6162 -54.0075 -54.0073 -54.0072   3.9540   5.3988   5.8373   5.8984
     5.9495   6.3216   6.7349   7.3004   7.3865   7.5425   7.8113   7.8780
     8.3035   8.3330   8.5945   8.7885  10.5904  12.8553  13.0288  15.7976
    18.0596  19.7793  20.1228  20.6304

          k = 0.7000-0.3000 0.7000 (  2984 PWs)   bands (ev):

   -93.6162 -54.0074 -54.0073 -54.0072   4.4796   5.4012   5.8679   5.8881
     5.9507   6.4076   6.8297   7.2996   7.3152   7.4933   7.7010   7.7706
     8.2723   8.4252   8.7278   8.7855   9.4214  12.2059  13.0615  15.8888
    19.2676  19.5889  19.6940  20.9291

          k = 0.6000-0.2000 0.6000 (  3002 PWs)   bands (ev):

   -93.6164 -54.0075 -54.0074 -54.0074   4.5433   5.4956   5.8411   5.8526
     6.0046   6.3608   6.9587   7.1321   7.3227   7.5971   7.6169   7.7326
     8.2275   8.4341   8.7053   8.8111   9.3115  11.7987  13.5084  16.0750
    18.8627  19.2850  20.7370  21.8144

          k = 0.5000-0.1000 0.5000 (  2991 PWs)   bands (ev):

   -93.6163 -54.0075 -54.0073 -54.0073   4.1077   5.5529   5.8243   5.8272
     6.0640   6.2061   7.0009   7.0389   7.3888   7.5084   7.7538   7.7834
     8.2049   8.4397   8.5559   8.8329  10.2703  11.7231  14.2900  16.3895
    18.5783  18.9348  20.1003  21.1472

          k = 0.4000 0.0000 0.4000 (  2966 PWs)   bands (ev):

   -93.6161 -54.0074 -54.0072 -54.0072   3.5122   5.6192   5.8150   5.8472
     6.0513   6.0634   6.9584   6.9807   7.2927   7.6408   7.8567   7.8662
     8.2238   8.3871   8.5433   8.8174  11.6773  12.1162  15.2620  16.8462
    18.1845  18.5300  19.0301  20.0833

          k = 0.0000 0.6000 0.0000 (  2970 PWs)   bands (ev):

   -93.6161 -54.0075 -54.0071 -54.0071   3.7315   5.3255   5.7405   5.9624
     5.9624   6.3140   6.5912   7.3887   7.3887   7.7310   7.9128   8.0462
     8.3025   8.3025   8.4281   8.7863  12.1231  12.6102  12.6102  15.1312
    16.3063  21.4098  21.4098  21.9855

          k =-0.1000 0.7000-0.1000 (  2990 PWs)   bands (ev):

   -93.6163 -54.0075 -54.0073 -54.0073   4.2730   5.2235   5.7219   5.9633
     5.9658   6.4813   6.5704   7.4442   7.4450   7.5677   7.8696   7.9906
     8.3001   8.4259   8.5385   8.8093  10.8832  11.8393  12.1247  15.3771
    16.5557  21.4785  21.6187  22.6521

          k = 0.8000-0.2000 0.8000 (  2985 PWs)   bands (ev):

   -93.6162 -54.0074 -54.0073 -54.0072   4.8040   5.2122   5.7567   5.9098
     5.9364   6.6143   6.6533   7.2658   7.4967   7.5703   7.7890   7.9192
     8.2111   8.5657   8.7423   8.8946   9.6700  11.0437  12.0779  15.5826
    17.7479  20.9907  21.1928  22.8280

          k = 0.7000-0.1000 0.7000 (  2996 PWs)   bands (ev):

   -93.6163 -54.0074 -54.0073 -54.0073   4.9024   5.4164   5.7671   5.8626
     5.8974   6.5967   6.8568   7.0962   7.5398   7.6507   7.7202   7.8328
     8.1394   8.5438   8.8417   8.8852   9.2841  10.4757  12.5138  15.7572
    19.3882  20.5099  20.5958  22.0628

          k = 0.6000-0.0000 0.6000 (  2992 PWs)   bands (ev):

   -93.6163 -54.0074 -54.0073 -54.0073   4.6131   5.4937   5.7638   5.8586
     5.9753   6.4024   7.0445   7.0571   7.4111   7.6472   7.7184   7.7922
     8.1372   8.4024   8.6722   8.8555  10.0330  10.4106  13.3131  16.0152
    19.8762  19.9157  20.3002  21.6129

          k = 0.0000 0.8000 0.0000 (  2990 PWs)   bands (ev):

   -93.6163 -54.0075 -54.0073 -54.0073   4.7508   5.1105   5.6504   5.9963
     5.9963   6.3874   6.6633   7.4590   7.4794   7.4794   7.8797   8.0146
     8.3457   8.6096   8.6096   8.8565  10.3549  11.4750  11.4750  15.0346
    16.0361  22.9262  22.9262  24.0542

          k = 0.9000-0.1000 0.9000 (  2977 PWs)   bands (ev):

   -93.6162 -54.0074 -54.0073 -54.0072   5.0567   5.2702   5.6486   5.9019
     5.9894   6.3430   6.8352   7.2155   7.5055   7.5494   7.8461   7.9921
     8.2654   8.7541   8.8004   9.0154   9.6794  10.7324  11.2944  15.2822
    16.3840  22.7945  22.9067  24.3468

          k = 0.8000 0.0000 0.8000 (  2978 PWs)   bands (ev):

   -93.6162 -54.0074 -54.0072 -54.0071   5.0469   5.5777   5.6413   5.7204
     5.9511   6.5839   6.8778   7.0153   7.5721   7.6343   7.7841   7.9376
     8.1550   8.7598   8.8620   9.1431   9.4373   9.9093  11.6988  15.5281
    17.6527  21.8359  22.1761  22.7428

          k = 0.0000-1.0000 0.0000 (  2954 PWs)   bands (ev):

   -93.6160 -54.0072 -54.0071 -54.0071   5.0250   5.5518   5.6469   5.9546
     6.0098   6.0098   6.9470   7.1985   7.4874   7.4874   7.8649   8.0085
     8.3205   8.8570   8.8570   9.0962   9.4198  10.9672  10.9672  15.0094
    15.9627  24.1405  24.1405  24.6715

          k =-0.2000 0.4000 0.0000 (  2960 PWs)   bands (ev):

   -93.6161 -54.0073 -54.0073 -54.0072   3.0681   5.6125   5.8353   5.8830
     5.9266   6.0616   6.7792   7.1006   7.1920   7.8112   7.9244   7.9992
     8.2517   8.2936   8.5825   8.7855  12.8744  13.2013  15.1321  16.4759
    17.5166  18.8020  19.2839  20.4036

          k =-0.3000 0.5000-0.1000 (  2979 PWs)   bands (ev):

   -93.6162 -54.0074 -54.0073 -54.0073   3.6267   5.5311   5.8475   5.8680
     5.9714   6.1835   6.8160   7.1458   7.3142   7.6238   7.8424   7.8654
     8.2431   8.3734   8.5606   8.8030  11.1675  12.6433  14.3122  16.6956
    17.9715  18.6169  19.5568  20.7350

          k = 0.6000-0.4000 0.8000 (  2987 PWs)   bands (ev):

   -93.6163 -54.0075 -54.0073 -54.0073   4.2209   5.4960   5.8329   5.8814
     6.0171   6.2939   6.8685   7.1669   7.3599   7.4748   7.7138   7.7623
     8.2532   8.4267   8.6339   8.8052   9.7886  12.4435  13.6119  16.6512
    17.8196  19.5238  20.0917  20.5373

          k = 0.5000-0.3000 0.7000 (  2984 PWs)   bands (ev):

   -93.6162 -54.0074 -54.0073 -54.0073   4.5058   5.5011   5.8173   5.9144
     6.0194   6.3422   6.8965   7.1806   7.2708   7.5299   7.6199   7.7115
     8.2535   8.4630   8.7130   8.7925   9.2042  12.4298  13.3032  16.6299
    17.7142  19.8578  20.0850  21.6900

          k =-0.2000 0.6000 0.0000 (  2970 PWs)   bands (ev):

   -93.6161 -54.0074 -54.0072 -54.0072   3.8516   5.3591   5.7931   5.9164
     5.9596   6.3160   6.6778   7.3394   7.4031   7.6198   7.8737   7.9546
     8.2422   8.3843   8.5001   8.7975  11.4741  12.0455  13.0445  16.0050
    16.9654  19.7942  21.1849  21.7983

          k = 0.7000-0.3000 0.9000 (  2998 PWs)   bands (ev):

   -93.6163 -54.0075 -54.0074 -54.0073   4.4325   5.2967   5.8156   5.8704
     5.9777   6.4507   6.7453   7.3805   7.4026   7.4970   7.7989   7.8849
     8.1937   8.4967   8.6193   8.8316  10.1651  11.5030  12.4236  16.3421
    17.9338  19.2262  21.5337  22.0620

          k = 0.6000-0.2000 0.8000 (  2995 PWs)   bands (ev):

   -93.6163 -54.0074 -54.0073 -54.0073   4.8040   5.3386   5.8011   5.8574
     5.9811   6.5079   6.8935   7.1749   7.4553   7.5600   7.7347   7.8041
     8.1310   8.5816   8.7676   8.9190   9.1998  11.1792  12.2826  16.5292
    18.7085  19.5440  21.2755  21.7802

          k = 0.5000-0.1000 0.7000 (  2996 PWs)   bands (ev):

   -93.6163 -54.0074 -54.0073 -54.0073   4.6730   5.4085   5.7818   5.8777
     5.9883   6.4309   6.9705   7.1506   7.3981   7.5782   7.7534   7.7799
     8.1225   8.5075   8.6885   8.8600   9.6066  10.9386  12.7303  16.8265
    18.3326  19.9022  21.0555  21.4256

          k = 0.4000 0.0000 0.6000 (  2997 PWs)   bands (ev):

   -93.6163 -54.0075 -54.0073 -54.0073   4.1793   5.4442   5.8287   5.8699
     5.9914   6.2931   6.8825   7.2057   7.4135   7.5086   7.8032   7.8216
     8.1756   8.4813   8.5254   8.8363  10.6550  11.1656  13.4866  17.2561
    17.7883  18.8211  20.4425  21.8434

          k = 0.8000-0.2000 1.0000 (  2993 PWs)   bands (ev):

   -93.6163 -54.0075 -54.0073 -54.0073   4.8030   5.1465   5.7043   5.9006
     6.0057   6.5398   6.6469   7.3297   7.4932   7.5499   7.8386   7.9724
     8.2164   8.6216   8.6785   8.8866  10.1831  11.0798  11.4959  15.7823
    16.6872  20.9927  22.8344  23.7919

          k = 0.7000-0.1000 0.9000 (  2991 PWs)   bands (ev):

   -93.6163 -54.0074 -54.0073 -54.0073   5.0825   5.2912   5.7400   5.7580
     6.0088   6.6598   6.7595   7.1177   7.5308   7.6384   7.7868   7.9191
     8.0915   8.7003   8.8553   9.1029   9.4600  10.3319  11.3788  16.1936
    17.7708  20.3710  22.0981  22.9444

          k = 0.6000 0.0000 0.8000 (  2985 PWs)   bands (ev):

   -93.6162 -54.0074 -54.0073 -54.0072   5.0005   5.4178   5.6901   5.8246
     5.9843   6.6380   6.9046   7.0507   7.5631   7.6346   7.7703   7.8369
     8.0355   8.6450   8.8422   8.9299   9.7143   9.8537  11.9077  16.4797
    19.4535  19.6151  20.6179  22.1727

          k =-0.2000-1.0000 0.0000 (  2982 PWs)   bands (ev):

   -93.6162 -54.0074 -54.0073 -54.0072   5.0619   5.5996   5.6374   5.6698
     6.0247   6.3902   6.9851   7.0237   7.4974   7.6154   7.8270   7.9764
     8.1888   8.7849   8.8939   9.2524   9.3303  10.6325  10.8502  15.7195
    16.6068  21.9495  23.0523  23.9071

          k = 0.6000-0.2000 1.0000 (  2992 PWs)   bands (ev):

   -93.6163 -54.0074 -54.0073 -54.0073   4.9124   5.2529   5.7724   5.8141
     6.0255   6.5775   6.8308   7.2061   7.5058   7.5406   7.7849   7.8753
     8.0557   8.6313   8.7579   8.9288   9.8689  10.4063  11.6674  17.4699
    18.1139  18.7669  21.6337  22.4881

          k = 0.5000-0.1000 0.9000 (  2998 PWs)   bands (ev):

   -93.6163 -54.0074 -54.0074 -54.0073   5.1069   5.2863   5.6953   5.8163
     6.0462   6.6445   6.9375   7.0659   7.5536   7.5995   7.7645   7.8399
     7.9931   8.6800   8.8898   9.1030   9.3604  10.2522  11.2875  17.8305
    18.2376  19.6893  19.8884  22.8885

          k =-0.4000-1.0000 0.0000 (  3000 PWs)   bands (ev):

   -93.6163 -54.0074 -54.0073 -54.0073   5.1747   5.3671   5.6306   5.7700
     6.0628   6.7932   6.7975   7.0316   7.5255   7.7227   7.7913   7.8177
     7.9901   8.7225   8.9550   9.1670   9.5833  10.0561  10.7069  17.3814
    18.2389  19.5281  20.4717  23.6259

     the Fermi energy is     8.8770 ev

!    total energy              =   -1389.42605841 Ry

     total all-electron energy =    -43178.925840 Ry
     estimated scf accuracy    <       0.00000007 Ry
     smearing contrib. (-TS)   =      -0.00552683 Ry
     internal energy E=F+TS    =   -1389.42053157 Ry

     The total energy is F=E-TS. E is the sum of the following terms:
     one-electron contribution =    -317.84438361 Ry
     hartree contribution      =     191.75835683 Ry
     xc contribution           =    -102.49176653 Ry
     ewald contribution        =    -295.25277528 Ry
     one-center paw contrib.   =    -865.58996298 Ry

     convergence has been achieved in  13 iterations

     Writing output data file ././cunipt.save/

     init_run     :      4.32s CPU      4.40s WALL (       1 calls)
     electrons    :    135.91s CPU    137.54s WALL (       1 calls)

     Called by init_run:
     wfcinit      :      3.15s CPU      3.17s WALL (       1 calls)
     potinit      :      0.35s CPU      0.37s WALL (       1 calls)
     hinit0       :      0.70s CPU      0.71s WALL (       1 calls)

     Called by electrons:
     c_bands      :    114.15s CPU    114.35s WALL (      13 calls)
     sum_band     :     16.01s CPU     16.81s WALL (      13 calls)
     v_of_rho     :      0.37s CPU      0.38s WALL (      14 calls)
     newd         :      0.98s CPU      1.65s WALL (      14 calls)
     PAW_pot      :      4.77s CPU      4.78s WALL (      14 calls)
     mix_rho      :      0.04s CPU      0.04s WALL (      13 calls)

     Called by c_bands:
     init_us_2    :      1.22s CPU      1.23s WALL (    1269 calls)
     cegterg      :    109.88s CPU    110.07s WALL (     611 calls)

     Called by *egterg:
     cdiaghg      :      1.86s CPU      1.86s WALL (    2408 calls)
     h_psi        :     68.86s CPU     69.01s WALL (    2455 calls)
     s_psi        :      9.25s CPU      9.26s WALL (    2455 calls)
     g_psi        :      0.35s CPU      0.35s WALL (    1797 calls)

     Called by h_psi:
     h_psi:calbec :      8.51s CPU      8.52s WALL (    2455 calls)
     vloc_psi     :     50.83s CPU     50.95s WALL (    2455 calls)
     add_vuspsi   :      9.24s CPU      9.26s WALL (    2455 calls)

     General routines
     calbec       :     11.97s CPU     11.98s WALL (    3066 calls)
     fft          :      0.14s CPU      0.14s WALL (     154 calls)
     ffts         :      0.01s CPU      0.01s WALL (      13 calls)
     fftw         :     52.52s CPU     52.66s WALL (  100752 calls)

     Parallel routines

     PWSCF        :   2m20.47s CPU   2m22.24s WALL


   This run was terminated on:  21: 3:17  13Sep2024            

=------------------------------------------------------------------------------=
   JOB DONE.
=------------------------------------------------------------------------------=
