
     Program PWSCF v.6.7MaX starts on 13Sep2024 at 21:15:24 

     This program is part of the open-source Quantum ESPRESSO suite
     for quantum simulation of materials; please cite
         "P. Giannozzi et al., J. Phys.:Condens. Matter 21 395502 (2009);
         "P. Giannozzi et al., J. Phys.:Condens. Matter 29 465901 (2017);
          URL http://www.quantum-espresso.org", 
     in publications or presentations arising from this work. More details at
     http://www.quantum-espresso.org/quote

     Parallel version (MPI), running on     1 processors

     MPI processes distributed on     1 nodes
     Waiting for input...
     Reading input from standard input

     Current dimensions of program PWSCF are:
     Max number of different atomic species (ntypx) = 10
     Max number of k-points (npk) =  40000
     Max angular momentum in pseudopotentials (lmaxx) =  3
     file Cu.upf: wavefunction(s)  4S 3D renormalized
     file Ni.upf: wavefunction(s)  3P 3D renormalized
     file Pt.upf: wavefunction(s)  6S 5D renormalized

     Subspace diagonalization in iterative solution of the eigenvalue problem:
     a serial algorithm will be used


     G-vector sticks info
     --------------------
     sticks:   dense  smooth     PW     G-vecs:    dense   smooth      PW
     Sum        1189    1189    349                27221    27221    4285



     bravais-lattice index     =            2
     lattice parameter (alat)  =      12.0000  a.u.
     unit-cell volume          =     432.0000 (a.u.)^3
     number of atoms/cell      =            3
     number of atomic types    =            3
     number of electrons       =        39.00
     number of Kohn-Sham states=           28
     kinetic-energy cutoff     =      60.0000  Ry
     charge density cutoff     =     240.0000  Ry
     scf convergence threshold =      1.0E-07
     mixing beta               =       0.7000
     number of iterations used =            8  plain     mixing
     Exchange-correlation= SLA  PW   PBX  PBC
                           (   1   4   3   4   0   0   0)

     celldm(1)=  12.000000  celldm(2)=   0.000000  celldm(3)=   0.000000
     celldm(4)=   0.000000  celldm(5)=   0.000000  celldm(6)=   0.000000

     crystal axes: (cart. coord. in units of alat)
               a(1) = (  -0.500000   0.000000   0.500000 )  
               a(2) = (   0.000000   0.500000   0.500000 )  
               a(3) = (  -0.500000   0.500000   0.000000 )  

     reciprocal axes: (cart. coord. in units 2 pi/alat)
               b(1) = ( -1.000000 -1.000000  1.000000 )  
               b(2) = (  1.000000  1.000000  1.000000 )  
               b(3) = ( -1.000000  1.000000 -1.000000 )  


     PseudoPot. # 1 for Cu read from file:
     ././Cu.upf
     MD5 check sum: cfffd1f38ee05704b3e17f46f1730a6f
     Pseudo is Projector augmented-wave + core cor, Zval = 11.0
     Generated using &quot;atomic&quot; code by A. Dal Corso  v.6.3
     Shape of augmentation charge: PSQ
     Using radial grid of 1199 points,  6 beta functions with: 
                l(1) =   0
                l(2) =   0
                l(3) =   1
                l(4) =   1
                l(5) =   2
                l(6) =   2
     Q(r) pseudized with 0 coefficients 


     PseudoPot. # 2 for Ni read from file:
     ././Ni.upf
     MD5 check sum: 6e86b733589c3ad8389697b807d86aa7
     Pseudo is Projector augmented-wave + core cor, Zval = 18.0
     Generated using &quot;atomic&quot; code by A. Dal Corso  v.6.3
     Shape of augmentation charge: PSQ
     Using radial grid of 1195 points,  6 beta functions with: 
                l(1) =   0
                l(2) =   0
                l(3) =   1
                l(4) =   1
                l(5) =   2
                l(6) =   2
     Q(r) pseudized with 0 coefficients 


     PseudoPot. # 3 for Pt read from file:
     ././Pt.upf
     MD5 check sum: c5224e9cd7a5e36e81f2def9f50bb494
     Pseudo is Projector augmented-wave + core cor, Zval = 10.0
     Generated using &quot;atomic&quot; code by A. Dal Corso  v.6.3
     Shape of augmentation charge: PSQ
     Using radial grid of 1277 points,  6 beta functions with: 
                l(1) =   0
                l(2) =   0
                l(3) =   1
                l(4) =   1
                l(5) =   2
                l(6) =   2
     Q(r) pseudized with 0 coefficients 


     atomic species   valence    mass     pseudopotential
        Cu            11.00    63.54600     Cu( 1.00)
        Ni            18.00    58.69300     Ni( 1.00)
        Pt            10.00   195.08000     Pt( 1.00)

     24 Sym. Ops. (no inversion) found



   Cartesian axes

     site n.     atom                  positions (alat units)
         1           Cu  tau(   1) = (   0.0000000   0.0000000   0.0000000  )
         2           Ni  tau(   2) = (   0.5000000   0.5000000   0.5000000  )
         3           Pt  tau(   3) = (   0.2500000   0.2500000   0.2500000  )

     number of k points=    47  Gaussian smearing, width (Ry)=  0.0100
                       cart. coord. in units 2pi/alat
        k(    1) = (   0.0000000   0.0000000   0.0000000), wk =   0.0020000
        k(    2) = (  -0.1000000   0.1000000  -0.1000000), wk =   0.0160000
        k(    3) = (  -0.2000000   0.2000000  -0.2000000), wk =   0.0160000
        k(    4) = (  -0.3000000   0.3000000  -0.3000000), wk =   0.0160000
        k(    5) = (  -0.4000000   0.4000000  -0.4000000), wk =   0.0160000
        k(    6) = (   0.5000000  -0.5000000   0.5000000), wk =   0.0080000
        k(    7) = (   0.0000000   0.2000000   0.0000000), wk =   0.0120000
        k(    8) = (  -0.1000000   0.3000000  -0.1000000), wk =   0.0480000
        k(    9) = (  -0.2000000   0.4000000  -0.2000000), wk =   0.0480000
        k(   10) = (  -0.3000000   0.5000000  -0.3000000), wk =   0.0480000
        k(   11) = (   0.6000000  -0.4000000   0.6000000), wk =   0.0480000
        k(   12) = (   0.5000000  -0.3000000   0.5000000), wk =   0.0480000
        k(   13) = (   0.4000000  -0.2000000   0.4000000), wk =   0.0480000
        k(   14) = (   0.3000000  -0.1000000   0.3000000), wk =   0.0480000
        k(   15) = (   0.2000000   0.0000000   0.2000000), wk =   0.0240000
        k(   16) = (   0.0000000   0.4000000   0.0000000), wk =   0.0120000
        k(   17) = (  -0.1000000   0.5000000  -0.1000000), wk =   0.0480000
        k(   18) = (  -0.2000000   0.6000000  -0.2000000), wk =   0.0480000
        k(   19) = (   0.7000000  -0.3000000   0.7000000), wk =   0.0480000
        k(   20) = (   0.6000000  -0.2000000   0.6000000), wk =   0.0480000
        k(   21) = (   0.5000000  -0.1000000   0.5000000), wk =   0.0480000
        k(   22) = (   0.4000000   0.0000000   0.4000000), wk =   0.0240000
        k(   23) = (   0.0000000   0.6000000   0.0000000), wk =   0.0120000
        k(   24) = (  -0.1000000   0.7000000  -0.1000000), wk =   0.0480000
        k(   25) = (   0.8000000  -0.2000000   0.8000000), wk =   0.0480000
        k(   26) = (   0.7000000  -0.1000000   0.7000000), wk =   0.0480000
        k(   27) = (   0.6000000  -0.0000000   0.6000000), wk =   0.0240000
        k(   28) = (   0.0000000   0.8000000   0.0000000), wk =   0.0120000
        k(   29) = (   0.9000000  -0.1000000   0.9000000), wk =   0.0480000
        k(   30) = (   0.8000000   0.0000000   0.8000000), wk =   0.0240000
        k(   31) = (   0.0000000  -1.0000000   0.0000000), wk =   0.0060000
        k(   32) = (  -0.2000000   0.4000000   0.0000000), wk =   0.0480000
        k(   33) = (  -0.3000000   0.5000000  -0.1000000), wk =   0.0960000
        k(   34) = (   0.6000000  -0.4000000   0.8000000), wk =   0.0960000
        k(   35) = (   0.5000000  -0.3000000   0.7000000), wk =   0.0480000
        k(   36) = (  -0.2000000   0.6000000   0.0000000), wk =   0.0480000
        k(   37) = (   0.7000000  -0.3000000   0.9000000), wk =   0.0960000
        k(   38) = (   0.6000000  -0.2000000   0.8000000), wk =   0.0960000
        k(   39) = (   0.5000000  -0.1000000   0.7000000), wk =   0.0960000
        k(   40) = (   0.4000000   0.0000000   0.6000000), wk =   0.0480000
        k(   41) = (   0.8000000  -0.2000000   1.0000000), wk =   0.0480000
        k(   42) = (   0.7000000  -0.1000000   0.9000000), wk =   0.0960000
        k(   43) = (   0.6000000   0.0000000   0.8000000), wk =   0.0480000
        k(   44) = (  -0.2000000  -1.0000000   0.0000000), wk =   0.0240000
        k(   45) = (   0.6000000  -0.2000000   1.0000000), wk =   0.0480000
        k(   46) = (   0.5000000  -0.1000000   0.9000000), wk =   0.0480000
        k(   47) = (  -0.4000000  -1.0000000   0.0000000), wk =   0.0240000

     Dense  grid:    27221 G-vectors     FFT dimensions: (  45,  45,  45)

     Estimated max dynamical RAM per process >     172.96 MB

     Check: negative core charge=   -0.000003

     Initial potential from superposition of free atoms

     starting charge   38.99935, renormalised to   39.00000
     Starting wfcs are   28 randomized atomic wfcs
     Checking if some PAW data can be deallocated... 

     total cpu time spent up to now is        5.0 secs

     Self-consistent Calculation

     iteration #  1     ecut=    60.00 Ry     beta= 0.70
     Davidson diagonalization with overlap
     ethr =  1.00E-02,  avg # of iterations =  6.4

     total cpu time spent up to now is       19.4 secs

     total energy              =   -1387.70560182 Ry
     estimated scf accuracy    <       2.11431019 Ry

     iteration #  2     ecut=    60.00 Ry     beta= 0.70
     Davidson diagonalization with overlap
     ethr =  5.42E-03,  avg # of iterations =  3.7

     total cpu time spent up to now is       36.1 secs

     total energy              =   -1386.22738145 Ry
     estimated scf accuracy    <      61.72994070 Ry

     iteration #  3     ecut=    60.00 Ry     beta= 0.70
     Davidson diagonalization with overlap
     ethr =  5.42E-03,  avg # of iterations =  4.4

     total cpu time spent up to now is       51.4 secs

     total energy              =   -1389.31713429 Ry
     estimated scf accuracy    <       0.79925403 Ry

     iteration #  4     ecut=    60.00 Ry     beta= 0.70
     Davidson diagonalization with overlap
     ethr =  2.05E-03,  avg # of iterations =  1.0

     total cpu time spent up to now is       62.1 secs

     total energy              =   -1389.35572596 Ry
     estimated scf accuracy    <       0.14482721 Ry

     iteration #  5     ecut=    60.00 Ry     beta= 0.70
     Davidson diagonalization with overlap
     ethr =  3.71E-04,  avg # of iterations =  1.7

     total cpu time spent up to now is       72.9 secs

     total energy              =   -1389.36044726 Ry
     estimated scf accuracy    <       0.01862150 Ry

     iteration #  6     ecut=    60.00 Ry     beta= 0.70
     Davidson diagonalization with overlap
     ethr =  4.77E-05,  avg # of iterations =  3.6

     total cpu time spent up to now is       86.8 secs

     total energy              =   -1389.36166665 Ry
     estimated scf accuracy    <       0.01982309 Ry

     iteration #  7     ecut=    60.00 Ry     beta= 0.70
     Davidson diagonalization with overlap
     ethr =  4.77E-05,  avg # of iterations =  1.0

     total cpu time spent up to now is       96.8 secs

     total energy              =   -1389.36291751 Ry
     estimated scf accuracy    <       0.01843935 Ry

     iteration #  8     ecut=    60.00 Ry     beta= 0.70
     Davidson diagonalization with overlap
     ethr =  4.73E-05,  avg # of iterations =  1.0

     total cpu time spent up to now is      106.8 secs

     total energy              =   -1389.36450404 Ry
     estimated scf accuracy    <       0.00588812 Ry

     iteration #  9     ecut=    60.00 Ry     beta= 0.70
     Davidson diagonalization with overlap
     ethr =  1.51E-05,  avg # of iterations =  1.3

     total cpu time spent up to now is      117.2 secs

     total energy              =   -1389.36490403 Ry
     estimated scf accuracy    <       0.00007247 Ry

     iteration # 10     ecut=    60.00 Ry     beta= 0.70
     Davidson diagonalization with overlap
     ethr =  1.86E-07,  avg # of iterations =  7.1

     total cpu time spent up to now is      137.2 secs

     total energy              =   -1389.36498122 Ry
     estimated scf accuracy    <       0.00000639 Ry

     iteration # 11     ecut=    60.00 Ry     beta= 0.70
     Davidson diagonalization with overlap
     ethr =  1.64E-08,  avg # of iterations =  2.9

     total cpu time spent up to now is      149.0 secs

     total energy              =   -1389.36497697 Ry
     estimated scf accuracy    <       0.00007840 Ry

     iteration # 12     ecut=    60.00 Ry     beta= 0.70
     Davidson diagonalization with overlap
     ethr =  1.64E-08,  avg # of iterations =  2.0

     total cpu time spent up to now is      162.1 secs

     total energy              =   -1389.36498120 Ry
     estimated scf accuracy    <       0.00000230 Ry

     iteration # 13     ecut=    60.00 Ry     beta= 0.70
     Davidson diagonalization with overlap
     ethr =  5.90E-09,  avg # of iterations =  1.0

     total cpu time spent up to now is      172.1 secs

     total energy              =   -1389.36498084 Ry
     estimated scf accuracy    <       0.00000092 Ry

     iteration # 14     ecut=    60.00 Ry     beta= 0.70
     Davidson diagonalization with overlap
     ethr =  2.36E-09,  avg # of iterations =  2.0

     total cpu time spent up to now is      183.8 secs

     End of self-consistent calculation

          k = 0.0000 0.0000 0.0000 (  3383 PWs)   bands (ev):

   -95.1918 -55.5864 -55.5864 -55.5864   1.2461   4.5815   4.5815   4.6392
     4.6392   4.6392   5.4775   5.4775   5.4775   6.3485   6.3485   6.6863
     6.6863   6.6863   7.0039   7.0039  13.4092  15.0728  15.0728  15.0728
    15.1827  15.1827  15.1827  15.8340

          k =-0.1000 0.1000-0.1000 (  3410 PWs)   bands (ev):

   -95.1920 -55.5866 -55.5866 -55.5865   1.3637   4.5906   4.5906   4.6114
     4.6513   4.6513   5.4873   5.4953   5.4953   6.3427   6.3427   6.6216
     6.6709   6.6709   7.0045   7.0045  12.6898  13.8318  14.3005  14.3005
    15.7666  15.8908  15.8908  16.5928

          k =-0.2000 0.2000-0.2000 (  3392 PWs)   bands (ev):

   -95.1918 -55.5865 -55.5865 -55.5865   1.7057   4.5535   4.5902   4.5902
     4.7116   4.7116   5.4903   5.5450   5.5450   6.3020   6.3020   6.4633
     6.6498   6.6498   7.0079   7.0079  10.8232  13.5649  13.5649  13.7980
    15.8656  16.0271  16.0271  16.6541

          k =-0.3000 0.3000-0.3000 (  3404 PWs)   bands (ev):

   -95.1919 -55.5866 -55.5866 -55.5866   2.2258   4.5179   4.5768   4.5768
     4.8098   4.8098   5.4293   5.6177   5.6177   6.1924   6.1924   6.2931
     6.6662   6.6662   7.0130   7.0130   9.1437  12.9718  12.9718  13.8956
    15.3117  15.7661  15.7661  17.8215

          k =-0.4000 0.4000-0.4000 (  3386 PWs)   bands (ev):

   -95.1918 -55.5865 -55.5865 -55.5865   2.7898   4.5631   4.5639   4.5639
     4.9042   4.9042   5.2554   5.7037   5.7037   6.0439   6.0439   6.1701
     6.7063   6.7063   7.0157   7.0157   7.9241  12.5789  12.5789  14.0324
    14.8662  15.5504  15.5504  19.4025

          k = 0.5000-0.5000 0.5000 (  3426 PWs)   bands (ev):

   -95.1921 -55.5867 -55.5867 -55.5867   3.0678   4.5587   4.5587   4.6742
     4.9448   4.9448   5.0675   5.7653   5.7653   5.9516   5.9516   6.1166
     6.7268   6.7268   7.0159   7.0159   7.4651  12.4402  12.4402  14.1273
    14.6646  15.4731  15.4731  20.5940

          k = 0.0000 0.2000 0.0000 (  3411 PWs)   bands (ev):

   -95.1920 -55.5866 -55.5866 -55.5865   1.4035   4.5455   4.6210   4.6334
     4.6475   4.6475   5.4231   5.5385   5.5385   6.3325   6.3525   6.6132
     6.6646   6.6646   6.9690   7.0292  13.1051  13.4859  13.4859  13.8087
    15.7639  15.9721  16.7358  16.7359

          k =-0.1000 0.3000-0.1000 (  3402 PWs)   bands (ev):

   -95.1919 -55.5865 -55.5865 -55.5865   1.6726   4.4869   4.6127   4.6341
     4.6702   4.7217   5.3982   5.5961   5.6098   6.2946   6.3420   6.5035
     6.6433   6.6475   6.9428   7.0427  11.4800  12.7677  12.9761  14.0155
    15.5885  15.9468  16.8519  16.9961

          k =-0.2000 0.4000-0.2000 (  3400 PWs)   bands (ev):

   -95.1919 -55.5866 -55.5865 -55.5865   2.1396   4.4247   4.6084   4.6170
     4.7287   4.8306   5.4079   5.6300   5.6945   6.1837   6.2814   6.3459
     6.6406   6.6672   6.9386   7.0512   9.6899  12.2376  12.4719  14.0400
    15.7362  16.2330  16.5951  16.7266

          k =-0.3000 0.5000-0.3000 (  3398 PWs)   bands (ev):

   -95.1919 -55.5866 -55.5865 -55.5865   2.7098   4.3970   4.5964   4.6186
     4.8030   4.9328   5.3922   5.6536   5.7796   6.0205   6.1619   6.2163
     6.6765   6.7030   6.9642   7.0479   8.2708  11.9334  11.9634  13.9696
    15.4664  16.3460  16.3591  17.6077

          k = 0.6000-0.4000 0.6000 (  3381 PWs)   bands (ev):

   -95.1918 -55.5865 -55.5865 -55.5865   3.1248   4.4245   4.5788   4.6560
     4.8421   4.9819   5.3162   5.7237   5.7857   5.9494   6.0333   6.1353
     6.7022   6.7298   7.0130   7.0243   7.4986  11.5111  11.9980  14.0271
    15.1687  16.0140  16.4508  19.1552

          k = 0.5000-0.3000 0.5000 (  3385 PWs)   bands (ev):

   -95.1918 -55.5865 -55.5865 -55.5865   3.0257   4.4432   4.5700   4.6239
     4.8689   4.9432   5.3544   5.6718   5.8066   5.9622   6.0630   6.1550
     6.6683   6.7496   6.9735   7.0514   7.6732  11.3150  12.3522  14.2255
    14.9292  15.7871  16.7287  19.2558

          k = 0.4000-0.2000 0.4000 (  3390 PWs)   bands (ev):

   -95.1918 -55.5866 -55.5865 -55.5865   2.5153   4.4427   4.5709   4.6059
     4.8406   4.8423   5.4520   5.5821   5.7621   6.0721   6.2021   6.2534
     6.6313   6.7226   6.9361   7.0637   8.7045  11.3829  12.9838  14.5212
    14.8302  15.6749  17.0863  17.7268

          k = 0.3000-0.1000 0.3000 (  3402 PWs)   bands (ev):

   -95.1919 -55.5866 -55.5865 -55.5865   1.9629   4.4864   4.5771   4.6180
     4.7348   4.7666   5.4838   5.5204   5.6774   6.2205   6.3050   6.3920
     6.6223   6.6736   6.9386   7.0554  10.2711  11.6823  13.8130  14.5858
    15.1640  15.6057  16.4666  17.4229

          k = 0.2000 0.0000 0.2000 (  3397 PWs)   bands (ev):

   -95.1919 -55.5865 -55.5865 -55.5864   1.5571   4.5543   4.5806   4.6256
     4.6707   4.6877   5.4771   5.4892   5.5855   6.3110   6.3424   6.5359
     6.6484   6.6589   6.9670   7.0347  12.0981  12.1951  14.3972  14.6560
    15.3407  15.5564  16.0770  16.9045

          k = 0.0000 0.4000 0.0000 (  3411 PWs)   bands (ev):

   -95.1920 -55.5866 -55.5865 -55.5865   1.8679   4.3805   4.6100   4.6703
     4.6703   4.7836   5.3141   5.7002   5.7002   6.2753   6.3548   6.4863
     6.6324   6.6324   6.8783   7.0516  11.9333  11.9988  11.9988  12.7730
    14.8141  17.2906  17.7459  17.7459

          k =-0.1000 0.5000-0.1000 (  3407 PWs)   bands (ev):

   -95.1919 -55.5867 -55.5866 -55.5865   2.2709   4.2805   4.6076   4.6697
     4.6844   4.8996   5.2957   5.7761   5.7934   6.1844   6.3348   6.3928
     6.6433   6.6549   6.8498   7.0579  10.2465  11.4109  11.4448  13.1586
    14.7896  17.5934  17.8673  17.8951

          k =-0.2000 0.6000-0.2000 (  3397 PWs)   bands (ev):

   -95.1919 -55.5866 -55.5865 -55.5865   2.8136   4.2121   4.6255   4.6516
     4.6996   5.0200   5.3365   5.8144   5.8797   6.0075   6.2617   6.2872
     6.6739   6.6908   6.9071   7.0639   8.7093  10.7607  11.0990  13.4021
    15.6916  17.1129  17.5960  17.9963

          k = 0.7000-0.3000 0.7000 (  3385 PWs)   bands (ev):

   -95.1918 -55.5866 -55.5865 -55.5865   3.3003   4.2123   4.6267   4.6317
     4.7261   5.0927   5.4221   5.8079   5.8423   5.9746   6.1650   6.1956
     6.6410   6.7719   7.0111   7.0679   7.6266  10.1873  11.1365  13.5289
    16.5929  17.1074  17.1802  18.2549

          k = 0.6000-0.2000 0.6000 (  3396 PWs)   bands (ev):

   -95.1919 -55.5866 -55.5866 -55.5865   3.3641   4.2926   4.5825   4.6042
     4.7822   5.0620   5.5418   5.6607   5.8396   6.0781   6.0858   6.1712
     6.5951   6.7772   7.0082   7.0772   7.5153   9.8233  11.5343  13.7284
    16.2115  16.7955  18.1621  19.0393

          k = 0.5000-0.1000 0.5000 (  3389 PWs)   bands (ev):

   -95.1918 -55.5866 -55.5865 -55.5865   2.9585   4.3385   4.5806   4.5891
     4.8202   4.9405   5.5666   5.5796   5.8948   5.9891   6.2026   6.2356
     6.5672   6.7801   6.8797   7.0961   8.4063   9.7414  12.2260  14.0470
    15.9377  16.4634  17.5030  18.6296

          k = 0.4000 0.0000 0.4000 (  3393 PWs)   bands (ev):

   -95.1918 -55.5866 -55.5865 -55.5865   2.4119   4.3992   4.5809   4.6093
     4.8098   4.8123   5.5247   5.5348   5.8201   6.0845   6.2814   6.3123
     6.5805   6.7437   6.8620   7.0851   9.7221  10.0575  13.0895  14.4998
    15.5366  16.0665  16.5259  17.6835

          k = 0.0000 0.6000 0.0000 (  3399 PWs)   bands (ev):

   -95.1919 -55.5866 -55.5866 -55.5866   2.6083   4.1510   4.5615   4.7008
     4.7008   5.0154   5.2149   5.8759   5.8759   6.1504   6.3399   6.3989
     6.6943   6.6943   6.7742   7.0597  10.0419  10.7239  10.7239  12.5465
    14.1588  18.8323  18.8323  19.1573

          k =-0.1000 0.7000-0.1000 (  3391 PWs)   bands (ev):

   -95.1918 -55.5866 -55.5866 -55.5866   3.1021   4.0603   4.5480   4.7004
     4.7016   5.1510   5.1961   5.9230   5.9241   6.0252   6.2992   6.3619
     6.6773   6.7885   6.8703   7.0807   8.9723   9.9374  10.3079  12.8504
    14.3375  18.7902  18.9875  19.7988

          k = 0.8000-0.2000 0.8000 (  3384 PWs)   bands (ev):

   -95.1918 -55.5866 -55.5866 -55.5865   3.5979   4.0443   4.5713   4.6466
     4.6801   5.2605   5.2675   5.7814   5.9771   6.0335   6.2274   6.3090
     6.5989   6.8996   7.0252   7.1605   7.9038   9.1545  10.2771  13.1474
    15.3691  18.2741  18.5773  20.0201

          k = 0.7000-0.1000 0.7000 (  3382 PWs)   bands (ev):

   -95.1918 -55.5866 -55.5865 -55.5865   3.7157   4.2092   4.4962   4.6483
     4.6714   5.2575   5.4419   5.6300   6.0171   6.1121   6.1809   6.2402
     6.5302   6.8885   7.1010   7.1918   7.5114   8.6132  10.6603  13.3623
    16.8608  17.8103  18.0201  19.3610

          k = 0.6000-0.0000 0.6000 (  3384 PWs)   bands (ev):

   -95.1918 -55.5866 -55.5865 -55.5865   3.4338   4.2817   4.5077   4.6163
     4.7592   5.1045   5.5906   5.6029   5.8931   6.1299   6.1778   6.2333
     6.5155   6.7564   6.9843   7.1130   8.2331   8.5089  11.3610  13.6441
    17.1977  17.3441  17.6897  19.0137

          k = 0.0000 0.8000 0.0000 (  3386 PWs)   bands (ev):

   -95.1918 -55.5866 -55.5866 -55.5866   3.5379   3.9611   4.4910   4.7272
     4.7272   5.0364   5.2980   5.9401   5.9522   5.9522   6.2970   6.3793
     6.7039   6.9336   6.9336   7.1193   8.4448   9.7558   9.7558  12.4431
    13.8521  20.1583  20.1583  21.0749

          k = 0.9000-0.1000 0.9000 (  3386 PWs)   bands (ev):

   -95.1918 -55.5866 -55.5866 -55.5866   3.9081   4.0214   4.4899   4.6295
     4.7217   5.0029   5.4350   5.7479   5.9790   6.0123   6.2639   6.3626
     6.6416   7.0381   7.0705   7.2555   7.8518   9.0461   9.6133  12.7390
    14.1439  20.0545  20.0606  21.4364

          k = 0.8000 0.0000 0.8000 (  3380 PWs)   bands (ev):

   -95.1917 -55.5866 -55.5866 -55.5865   3.8904   4.3323   4.3606   4.5589
     4.6911   5.2109   5.4875   5.5664   6.0458   6.0876   6.2133   6.3151
     6.5525   7.0412   7.1155   7.4067   7.6311   8.2205   9.9584  13.0793
    15.2676  19.1782  19.3282  20.0167

          k = 0.0000-1.0000 0.0000 (  3378 PWs)   bands (ev):

   -95.1917 -55.5866 -55.5866 -55.5865   3.8868   4.2984   4.4584   4.6524
     4.7377   4.7377   5.5192   5.7422   5.9615   5.9615   6.2761   6.3771
     6.6813   7.1104   7.1104   7.3306   7.5981   9.3468   9.3468  12.4140
    13.7642  21.1632  21.1632  22.1118

          k =-0.2000 0.4000 0.0000 (  3413 PWs)   bands (ev):

   -95.1920 -55.5866 -55.5866 -55.5866   2.0077   4.4008   4.6130   4.6404
     4.6912   4.8065   5.3748   5.6425   5.7250   6.2192   6.3308   6.4124
     6.6165   6.6683   6.8962   7.0597  10.8109  11.0684  12.9030  13.9605
    15.3542  16.2474  16.6888  17.9318

          k =-0.3000 0.5000-0.1000 (  3401 PWs)   bands (ev):

   -95.1919 -55.5866 -55.5866 -55.5865   2.5158   4.3263   4.6146   4.6240
     4.7388   4.9091   5.4037   5.6800   5.8308   6.0718   6.2764   6.2982
     6.6050   6.7306   6.8773   7.0740   9.2277  10.5946  12.1883  14.2846
    15.5697  16.1040  16.9880  18.1551

          k = 0.6000-0.4000 0.8000 (  3386 PWs)   bands (ev):

   -95.1918 -55.5866 -55.5865 -55.5865   3.0619   4.2943   4.5926   4.6300
     4.7846   5.0013   5.4552   5.7069   5.8671   5.9569   6.1712   6.2027
     6.6172   6.7679   6.9389   7.0752   7.9565  10.4200  11.5858  14.3446
    15.2351  16.9915  17.5275  17.9129

          k = 0.5000-0.3000 0.7000 (  3400 PWs)   bands (ev):

   -95.1919 -55.5866 -55.5866 -55.5866   3.3275   4.3016   4.5742   4.6448
     4.7966   5.0403   5.4960   5.7134   5.7939   6.0123   6.0865   6.1504
     6.6191   6.7990   7.0068   7.0665   7.4116  10.3981  11.3305  14.3645
    15.0885  17.2418  17.5756  18.9446

          k =-0.2000 0.6000 0.0000 (  3411 PWs)   bands (ev):

   -95.1920 -55.5867 -55.5866 -55.5866   2.7189   4.1784   4.6001   4.6598
     4.7047   5.0169   5.2868   5.8354   5.8951   6.0677   6.3094   6.3447
     6.6242   6.7508   6.8297   7.0706   9.5277  10.0876  11.0480  13.4801
    14.7688  17.2050  18.5646  19.0480

          k = 0.7000-0.3000 0.9000 (  3388 PWs)   bands (ev):

   -95.1918 -55.5866 -55.5866 -55.5865   3.2532   4.1213   4.6092   4.6193
     4.7254   5.1280   5.3425   5.8728   5.8969   5.9796   6.2436   6.2913
     6.5816   6.8341   6.9299   7.1008   8.3404   9.5650  10.5160  13.8954
    15.5895  16.6304  18.9371  19.2410

          k = 0.6000-0.2000 0.8000 (  3376 PWs)   bands (ev):

   -95.1917 -55.5866 -55.5865 -55.5865   3.6077   4.1543   4.5355   4.6406
     4.7423   5.1774   5.4702   5.7026   5.9537   6.0440   6.1809   6.2280
     6.5214   6.9048   7.0515   7.1997   7.4352   9.2506  10.4109  14.1357
    16.1438  17.0200  18.6728  19.1171

          k = 0.5000-0.1000 0.7000 (  3383 PWs)   bands (ev):

   -95.1918 -55.5866 -55.5865 -55.5865   3.4866   4.2136   4.5225   4.6395
     4.7644   5.1195   5.5274   5.6888   5.8908   6.0686   6.2047   6.2131
     6.5084   6.8391   6.9976   7.1211   7.8136   9.0312  10.7968  14.4547
    15.7596  17.3534  18.4044  18.8376

          k = 0.4000 0.0000 0.6000 (  3395 PWs)   bands (ev):

   -95.1918 -55.5866 -55.5866 -55.5865   3.0232   4.2467   4.5833   4.6268
     4.7641   5.0053   5.4535   5.7300   5.9054   5.9928   6.2531   6.2550
     6.5502   6.8119   6.8596   7.1007   8.7965   9.2135  11.4603  14.9027
    15.2372  16.3414  17.8185  19.2349

          k = 0.8000-0.2000 1.0000 (  3386 PWs)   bands (ev):

   -95.1918 -55.5866 -55.5866 -55.5866   3.5897   3.9912   4.5350   4.6360
     4.7382   5.1700   5.2852   5.8348   5.9716   6.0101   6.2652   6.3491
     6.6076   6.9387   6.9795   7.1473   8.3283   9.2850   9.7244  13.2398
    14.4604  18.3166  20.1223  20.8210

          k = 0.7000-0.1000 0.9000 (  3378 PWs)   bands (ev):

   -95.1917 -55.5866 -55.5866 -55.5865   3.9055   4.0770   4.4800   4.5734
     4.7448   5.2720   5.3830   5.6578   6.0160   6.0893   6.2173   6.3094
     6.4998   6.9967   7.1135   7.3342   7.7171   8.5415   9.6251  13.7249
    15.4006  17.7152  19.4356  20.1768

          k = 0.6000 0.0000 0.8000 (  3389 PWs)   bands (ev):

   -95.1918 -55.5866 -55.5866 -55.5865   3.8175   4.2159   4.4103   4.6265
     4.7383   5.2901   5.4799   5.5914   6.0401   6.1090   6.2099   6.2532
     6.4369   6.9565   7.1177   7.2065   7.9584   8.0208  10.0767  14.0618
    16.9183  16.9787  18.0875  19.4484

          k =-0.2000-1.0000 0.0000 (  3366 PWs)   bands (ev):

   -95.1917 -55.5865 -55.5865 -55.5865   3.9178   4.3099   4.3998   4.5041
     4.7530   5.0455   5.5457   5.6038   5.9785   6.0662   6.2466   6.3496
     6.5823   7.0575   7.1393   7.4673   7.5332   8.9293   9.2071  13.1698
    14.3673  19.1934  20.3152  21.0116

          k = 0.6000-0.2000 1.0000 (  3373 PWs)   bands (ev):

   -95.1917 -55.5866 -55.5865 -55.5865   3.7066   4.0799   4.5063   4.6173
     4.7712   5.2345   5.4110   5.7298   5.9841   6.0341   6.2223   6.2846
     6.4594   6.9397   7.0480   7.1848   8.0872   8.5625   9.8303  14.9131
    15.8116  16.1714  19.0044  19.7976

          k = 0.5000-0.1000 0.9000 (  3374 PWs)   bands (ev):

   -95.1917 -55.5866 -55.5865 -55.5865   3.9091   4.1071   4.4143   4.6206
     4.7903   5.2913   5.4977   5.6112   6.0548   6.0758   6.1974   6.2685
     6.3856   6.9799   7.1431   7.3453   7.6377   8.4069   9.5073  15.3792
    15.6477  17.0953  17.4476  20.1738

          k =-0.4000-1.0000 0.0000 (  3378 PWs)   bands (ev):

   -95.1917 -55.5866 -55.5866 -55.5865   4.0121   4.1729   4.3226   4.5904
     4.7971   5.3807   5.4222   5.5764   6.0268   6.1575   6.2162   6.2744
     6.3754   7.0121   7.1884   7.4105   7.7825   8.2747   9.0294  14.8202
    15.8815  16.8861  17.9384  20.8059

     the Fermi energy is     7.1493 ev

!    total energy              =   -1389.36498099 Ry

     total all-electron energy =    -43178.864762 Ry
     estimated scf accuracy    <       0.00000001 Ry
     smearing contrib. (-TS)   =      -0.00593881 Ry
     internal energy E=F+TS    =   -1389.35904218 Ry

     The total energy is F=E-TS. E is the sum of the following terms:
     one-electron contribution =    -338.19663340 Ry
     hartree contribution      =     199.71169189 Ry
     xc contribution           =    -102.36341148 Ry
     ewald contribution        =    -282.95057631 Ry
     one-center paw contrib.   =    -865.56011289 Ry

     convergence has been achieved in  14 iterations

     Writing output data file ././cunipt.save/

     init_run     :      4.71s CPU      4.81s WALL (       1 calls)
     electrons    :    176.29s CPU    178.72s WALL (       1 calls)

     Called by init_run:
     wfcinit      :      3.50s CPU      3.53s WALL (       1 calls)
     potinit      :      0.37s CPU      0.39s WALL (       1 calls)
     hinit0       :      0.72s CPU      0.72s WALL (       1 calls)

     Called by electrons:
     c_bands      :    149.86s CPU    150.38s WALL (      14 calls)
     sum_band     :     19.84s CPU     20.92s WALL (      14 calls)
     v_of_rho     :      0.42s CPU      0.43s WALL (      15 calls)
     newd         :      1.26s CPU      2.11s WALL (      15 calls)
     PAW_pot      :      5.28s CPU      5.32s WALL (      15 calls)
     mix_rho      :      0.06s CPU      0.06s WALL (      14 calls)

     Called by c_bands:
     init_us_2    :      1.59s CPU      1.61s WALL (    1363 calls)
     cegterg      :    144.28s CPU    144.78s WALL (     658 calls)

     Called by *egterg:
     cdiaghg      :      2.11s CPU      2.12s WALL (    2500 calls)
     h_psi        :     88.55s CPU     88.92s WALL (    2547 calls)
     s_psi        :     12.50s CPU     12.54s WALL (    2547 calls)
     g_psi        :      0.48s CPU      0.48s WALL (    1842 calls)

     Called by h_psi:
     h_psi:calbec :     11.61s CPU     11.65s WALL (    2547 calls)
     vloc_psi     :     64.04s CPU     64.33s WALL (    2547 calls)
     add_vuspsi   :     12.53s CPU     12.57s WALL (    2547 calls)

     General routines
     calbec       :     16.18s CPU     16.23s WALL (    3205 calls)
     fft          :      0.15s CPU      0.15s WALL (     165 calls)
     ffts         :      0.02s CPU      0.02s WALL (      14 calls)
     fftw         :     66.11s CPU     66.41s WALL (  111798 calls)

     Parallel routines

     PWSCF        :   3m 1.26s CPU   3m 3.84s WALL


   This run was terminated on:  21:18:28  13Sep2024            

=------------------------------------------------------------------------------=
   JOB DONE.
=------------------------------------------------------------------------------=
