
     Program PWSCF v.6.7MaX starts on 13Sep2024 at 20:32:20 

     This program is part of the open-source Quantum ESPRESSO suite
     for quantum simulation of materials; please cite
         "P. Giannozzi et al., J. Phys.:Condens. Matter 21 395502 (2009);
         "P. Giannozzi et al., J. Phys.:Condens. Matter 29 465901 (2017);
          URL http://www.quantum-espresso.org", 
     in publications or presentations arising from this work. More details at
     http://www.quantum-espresso.org/quote

     Parallel version (MPI), running on     1 processors

     MPI processes distributed on     1 nodes
     Waiting for input...
     Reading input from standard input

     Current dimensions of program PWSCF are:
     Max number of different atomic species (ntypx) = 10
     Max number of k-points (npk) =  40000
     Max angular momentum in pseudopotentials (lmaxx) =  3
     file Cu.upf: wavefunction(s)  4S 3D renormalized
     file Ni.upf: wavefunction(s)  3P 3D renormalized
     file Pt.upf: wavefunction(s)  6S 5D renormalized

     Subspace diagonalization in iterative solution of the eigenvalue problem:
     a serial algorithm will be used


     G-vector sticks info
     --------------------
     sticks:   dense  smooth     PW     G-vecs:    dense   smooth      PW
     Sum         889     889    265                17573    17573    2891



     bravais-lattice index     =            2
     lattice parameter (alat)  =      10.4000  a.u.
     unit-cell volume          =     281.2160 (a.u.)^3
     number of atoms/cell      =            3
     number of atomic types    =            3
     number of electrons       =        39.00
     number of Kohn-Sham states=           28
     kinetic-energy cutoff     =      60.0000  Ry
     charge density cutoff     =     240.0000  Ry
     scf convergence threshold =      1.0E-07
     mixing beta               =       0.7000
     number of iterations used =            8  plain     mixing
     Exchange-correlation= SLA  PW   PBX  PBC
                           (   1   4   3   4   0   0   0)

     celldm(1)=  10.400000  celldm(2)=   0.000000  celldm(3)=   0.000000
     celldm(4)=   0.000000  celldm(5)=   0.000000  celldm(6)=   0.000000

     crystal axes: (cart. coord. in units of alat)
               a(1) = (  -0.500000   0.000000   0.500000 )  
               a(2) = (   0.000000   0.500000   0.500000 )  
               a(3) = (  -0.500000   0.500000   0.000000 )  

     reciprocal axes: (cart. coord. in units 2 pi/alat)
               b(1) = ( -1.000000 -1.000000  1.000000 )  
               b(2) = (  1.000000  1.000000  1.000000 )  
               b(3) = ( -1.000000  1.000000 -1.000000 )  


     PseudoPot. # 1 for Cu read from file:
     ././Cu.upf
     MD5 check sum: cfffd1f38ee05704b3e17f46f1730a6f
     Pseudo is Projector augmented-wave + core cor, Zval = 11.0
     Generated using &quot;atomic&quot; code by A. Dal Corso  v.6.3
     Shape of augmentation charge: PSQ
     Using radial grid of 1199 points,  6 beta functions with: 
                l(1) =   0
                l(2) =   0
                l(3) =   1
                l(4) =   1
                l(5) =   2
                l(6) =   2
     Q(r) pseudized with 0 coefficients 


     PseudoPot. # 2 for Ni read from file:
     ././Ni.upf
     MD5 check sum: 6e86b733589c3ad8389697b807d86aa7
     Pseudo is Projector augmented-wave + core cor, Zval = 18.0
     Generated using &quot;atomic&quot; code by A. Dal Corso  v.6.3
     Shape of augmentation charge: PSQ
     Using radial grid of 1195 points,  6 beta functions with: 
                l(1) =   0
                l(2) =   0
                l(3) =   1
                l(4) =   1
                l(5) =   2
                l(6) =   2
     Q(r) pseudized with 0 coefficients 


     PseudoPot. # 3 for Pt read from file:
     ././Pt.upf
     MD5 check sum: c5224e9cd7a5e36e81f2def9f50bb494
     Pseudo is Projector augmented-wave + core cor, Zval = 10.0
     Generated using &quot;atomic&quot; code by A. Dal Corso  v.6.3
     Shape of augmentation charge: PSQ
     Using radial grid of 1277 points,  6 beta functions with: 
                l(1) =   0
                l(2) =   0
                l(3) =   1
                l(4) =   1
                l(5) =   2
                l(6) =   2
     Q(r) pseudized with 0 coefficients 


     atomic species   valence    mass     pseudopotential
        Cu            11.00    63.54600     Cu( 1.00)
        Ni            18.00    58.69300     Ni( 1.00)
        Pt            10.00   195.08000     Pt( 1.00)

     24 Sym. Ops. (no inversion) found



   Cartesian axes

     site n.     atom                  positions (alat units)
         1           Cu  tau(   1) = (   0.0000000   0.0000000   0.0000000  )
         2           Ni  tau(   2) = (   0.5000000   0.5000000   0.5000000  )
         3           Pt  tau(   3) = (   0.2500000   0.2500000   0.2500000  )

     number of k points=    47  Gaussian smearing, width (Ry)=  0.0100
                       cart. coord. in units 2pi/alat
        k(    1) = (   0.0000000   0.0000000   0.0000000), wk =   0.0020000
        k(    2) = (  -0.1000000   0.1000000  -0.1000000), wk =   0.0160000
        k(    3) = (  -0.2000000   0.2000000  -0.2000000), wk =   0.0160000
        k(    4) = (  -0.3000000   0.3000000  -0.3000000), wk =   0.0160000
        k(    5) = (  -0.4000000   0.4000000  -0.4000000), wk =   0.0160000
        k(    6) = (   0.5000000  -0.5000000   0.5000000), wk =   0.0080000
        k(    7) = (   0.0000000   0.2000000   0.0000000), wk =   0.0120000
        k(    8) = (  -0.1000000   0.3000000  -0.1000000), wk =   0.0480000
        k(    9) = (  -0.2000000   0.4000000  -0.2000000), wk =   0.0480000
        k(   10) = (  -0.3000000   0.5000000  -0.3000000), wk =   0.0480000
        k(   11) = (   0.6000000  -0.4000000   0.6000000), wk =   0.0480000
        k(   12) = (   0.5000000  -0.3000000   0.5000000), wk =   0.0480000
        k(   13) = (   0.4000000  -0.2000000   0.4000000), wk =   0.0480000
        k(   14) = (   0.3000000  -0.1000000   0.3000000), wk =   0.0480000
        k(   15) = (   0.2000000   0.0000000   0.2000000), wk =   0.0240000
        k(   16) = (   0.0000000   0.4000000   0.0000000), wk =   0.0120000
        k(   17) = (  -0.1000000   0.5000000  -0.1000000), wk =   0.0480000
        k(   18) = (  -0.2000000   0.6000000  -0.2000000), wk =   0.0480000
        k(   19) = (   0.7000000  -0.3000000   0.7000000), wk =   0.0480000
        k(   20) = (   0.6000000  -0.2000000   0.6000000), wk =   0.0480000
        k(   21) = (   0.5000000  -0.1000000   0.5000000), wk =   0.0480000
        k(   22) = (   0.4000000   0.0000000   0.4000000), wk =   0.0240000
        k(   23) = (   0.0000000   0.6000000   0.0000000), wk =   0.0120000
        k(   24) = (  -0.1000000   0.7000000  -0.1000000), wk =   0.0480000
        k(   25) = (   0.8000000  -0.2000000   0.8000000), wk =   0.0480000
        k(   26) = (   0.7000000  -0.1000000   0.7000000), wk =   0.0480000
        k(   27) = (   0.6000000  -0.0000000   0.6000000), wk =   0.0240000
        k(   28) = (   0.0000000   0.8000000   0.0000000), wk =   0.0120000
        k(   29) = (   0.9000000  -0.1000000   0.9000000), wk =   0.0480000
        k(   30) = (   0.8000000   0.0000000   0.8000000), wk =   0.0240000
        k(   31) = (   0.0000000  -1.0000000   0.0000000), wk =   0.0060000
        k(   32) = (  -0.2000000   0.4000000   0.0000000), wk =   0.0480000
        k(   33) = (  -0.3000000   0.5000000  -0.1000000), wk =   0.0960000
        k(   34) = (   0.6000000  -0.4000000   0.8000000), wk =   0.0960000
        k(   35) = (   0.5000000  -0.3000000   0.7000000), wk =   0.0480000
        k(   36) = (  -0.2000000   0.6000000   0.0000000), wk =   0.0480000
        k(   37) = (   0.7000000  -0.3000000   0.9000000), wk =   0.0960000
        k(   38) = (   0.6000000  -0.2000000   0.8000000), wk =   0.0960000
        k(   39) = (   0.5000000  -0.1000000   0.7000000), wk =   0.0960000
        k(   40) = (   0.4000000   0.0000000   0.6000000), wk =   0.0480000
        k(   41) = (   0.8000000  -0.2000000   1.0000000), wk =   0.0480000
        k(   42) = (   0.7000000  -0.1000000   0.9000000), wk =   0.0960000
        k(   43) = (   0.6000000   0.0000000   0.8000000), wk =   0.0480000
        k(   44) = (  -0.2000000  -1.0000000   0.0000000), wk =   0.0240000
        k(   45) = (   0.6000000  -0.2000000   1.0000000), wk =   0.0480000
        k(   46) = (   0.5000000  -0.1000000   0.9000000), wk =   0.0480000
        k(   47) = (  -0.4000000  -1.0000000   0.0000000), wk =   0.0240000

     Dense  grid:    17573 G-vectors     FFT dimensions: (  40,  40,  40)

     Estimated max dynamical RAM per process >     113.73 MB

     Check: negative core charge=   -0.000002

     Initial potential from superposition of free atoms

     starting charge   38.99935, renormalised to   39.00000
     Starting wfcs are   28 randomized atomic wfcs
     Checking if some PAW data can be deallocated... 

     total cpu time spent up to now is        3.4 secs

     Self-consistent Calculation

     iteration #  1     ecut=    60.00 Ry     beta= 0.70
     Davidson diagonalization with overlap
     ethr =  1.00E-02,  avg # of iterations =  5.9

     total cpu time spent up to now is       12.0 secs

     total energy              =   -1388.05545771 Ry
     estimated scf accuracy    <       1.76673978 Ry

     iteration #  2     ecut=    60.00 Ry     beta= 0.70
     Davidson diagonalization with overlap
     ethr =  4.53E-03,  avg # of iterations =  3.2

     total cpu time spent up to now is       21.1 secs

     total energy              =   -1385.93299540 Ry
     estimated scf accuracy    <      47.66772182 Ry

     iteration #  3     ecut=    60.00 Ry     beta= 0.70
     Davidson diagonalization with overlap
     ethr =  4.53E-03,  avg # of iterations =  3.9

     total cpu time spent up to now is       29.3 secs

     total energy              =   -1389.37047742 Ry
     estimated scf accuracy    <       0.60362319 Ry

     iteration #  4     ecut=    60.00 Ry     beta= 0.70
     Davidson diagonalization with overlap
     ethr =  1.55E-03,  avg # of iterations =  2.0

     total cpu time spent up to now is       35.7 secs

     total energy              =   -1389.42128526 Ry
     estimated scf accuracy    <       0.07985905 Ry

     iteration #  5     ecut=    60.00 Ry     beta= 0.70
     Davidson diagonalization with overlap
     ethr =  2.05E-04,  avg # of iterations =  2.3

     total cpu time spent up to now is       42.1 secs

     total energy              =   -1389.42092809 Ry
     estimated scf accuracy    <       0.02622270 Ry

     iteration #  6     ecut=    60.00 Ry     beta= 0.70
     Davidson diagonalization with overlap
     ethr =  6.72E-05,  avg # of iterations =  2.6

     total cpu time spent up to now is       49.2 secs

     total energy              =   -1389.42525952 Ry
     estimated scf accuracy    <       0.02267402 Ry

     iteration #  7     ecut=    60.00 Ry     beta= 0.70
     Davidson diagonalization with overlap
     ethr =  5.81E-05,  avg # of iterations =  1.0

     total cpu time spent up to now is       55.0 secs

     total energy              =   -1389.42780824 Ry
     estimated scf accuracy    <       0.00196890 Ry

     iteration #  8     ecut=    60.00 Ry     beta= 0.70
     Davidson diagonalization with overlap
     ethr =  5.05E-06,  avg # of iterations =  4.3

     total cpu time spent up to now is       62.1 secs

     total energy              =   -1389.42810695 Ry
     estimated scf accuracy    <       0.00014547 Ry

     iteration #  9     ecut=    60.00 Ry     beta= 0.70
     Davidson diagonalization with overlap
     c_bands:  1 eigenvalues not converged
     ethr =  3.73E-07,  avg # of iterations =  5.1

     total cpu time spent up to now is       71.0 secs

     total energy              =   -1389.42817651 Ry
     estimated scf accuracy    <       0.00001328 Ry

     iteration # 10     ecut=    60.00 Ry     beta= 0.70
     Davidson diagonalization with overlap
     ethr =  3.41E-08,  avg # of iterations =  2.7

     total cpu time spent up to now is       77.8 secs

     total energy              =   -1389.42817781 Ry
     estimated scf accuracy    <       0.00000244 Ry

     iteration # 11     ecut=    60.00 Ry     beta= 0.70
     Davidson diagonalization with overlap
     ethr =  6.24E-09,  avg # of iterations =  2.9

     total cpu time spent up to now is       84.7 secs

     total energy              =   -1389.42817784 Ry
     estimated scf accuracy    <       0.00000143 Ry

     iteration # 12     ecut=    60.00 Ry     beta= 0.70
     Davidson diagonalization with overlap
     ethr =  3.68E-09,  avg # of iterations =  1.5

     total cpu time spent up to now is       90.9 secs

     total energy              =   -1389.42817776 Ry
     estimated scf accuracy    <       0.00000046 Ry

     iteration # 13     ecut=    60.00 Ry     beta= 0.70
     Davidson diagonalization with overlap
     ethr =  1.17E-09,  avg # of iterations =  2.0

     total cpu time spent up to now is       97.9 secs

     End of self-consistent calculation

          k = 0.0000 0.0000 0.0000 (  2229 PWs)   bands (ev):

   -88.9007 -49.2995 -49.2995 -49.2995   5.2882   9.2576   9.2576   9.5795
     9.5795   9.5795  11.0530  11.0530  11.0530  12.8329  12.8329  13.1827
    13.1827  13.1827  13.8675  13.8675  23.8929  24.6832  24.6832  24.6832
    24.7677  24.7677  24.7677  25.4516

          k =-0.1000 0.1000-0.1000 (  2181 PWs)   bands (ev):

   -88.9002 -49.2993 -49.2992 -49.2992   5.4568   9.2937   9.2937   9.5395
     9.5767   9.5767  11.0730  11.0934  11.0934  12.7983  12.7983  13.0455
    13.1743  13.1743  13.8597  13.8597  21.9307  23.6285  23.6285  23.9462
    25.1508  25.5026  25.5026  26.0616

          k =-0.2000 0.2000-0.2000 (  2202 PWs)   bands (ev):

   -88.9004 -49.2996 -49.2992 -49.2992   5.9408   9.3681   9.3681   9.4661
     9.5996   9.5996  11.0715  11.2021  11.2021  12.6576  12.6576  12.7225
    13.1808  13.1808  13.8558  13.8558  19.3192  22.5696  22.5696  23.6183
    25.3415  25.3415  25.4191  26.8592

          k =-0.3000 0.3000-0.3000 (  2199 PWs)   bands (ev):

   -88.9003 -49.2996 -49.2991 -49.2991   6.6631   9.3896   9.3896   9.4490
     9.7254   9.7254  10.9117  11.3464  11.3464  12.3988  12.3988  12.4269
    13.2323  13.2323  13.8727  13.8727  17.0458  21.6527  21.6527  23.2461
    25.1193  25.1193  25.6092  28.3456

          k =-0.4000 0.4000-0.4000 (  2208 PWs)   bands (ev):

   -88.9003 -49.2997 -49.2991 -49.2991   7.4169   9.3729   9.3729   9.5705
     9.8943   9.8943  10.5382  11.4867  11.4867  12.1149  12.1149  12.3000
    13.2973  13.2973  13.8976  13.8976  15.3679  21.0171  21.0171  23.0001
    24.9702  24.9702  25.6603  29.9102

          k = 0.5000-0.5000 0.5000 (  2186 PWs)   bands (ev):

   -88.9001 -49.2995 -49.2989 -49.2989   7.7714   9.3635   9.3635   9.7856
     9.9734   9.9734  10.1976  11.5629  11.5629  11.9699  11.9699  12.2802
    13.3267  13.3267  13.9092  13.9092  14.7104  20.7878  20.7878  22.9170
    24.9190  24.9190  25.6683  30.6254

          k = 0.0000 0.2000 0.0000 (  2181 PWs)   bands (ev):

   -88.9002 -49.2993 -49.2992 -49.2992   5.5137   9.2567   9.3538   9.4859
     9.5913   9.5913  10.9616  11.1741  11.1741  12.7770  12.8056  13.1190
    13.1193  13.1193  13.7832  13.9106  22.4594  22.4594  23.3322  23.4070
    24.4030  25.8657  25.9317  25.9317

          k =-0.1000 0.3000-0.1000 (  2191 PWs)   bands (ev):

   -88.9002 -49.2995 -49.2991 -49.2991   5.8956   9.2691   9.3979   9.4547
     9.5954   9.6229  10.9284  11.2878  11.3194  12.6877  12.6967  12.8602
    13.0996  13.1729  13.7166  13.9301  20.1170  21.4186  22.6380  23.4442
    24.3488  25.7825  26.2083  26.5241

          k =-0.2000 0.4000-0.2000 (  2197 PWs)   bands (ev):

   -88.9003 -49.2995 -49.2991 -49.2991   6.5474   9.2390   9.4141   9.4732
     9.6224   9.7681  10.9495  11.3416  11.4868  12.4159  12.5001  12.5637
    13.1761  13.2166  13.7092  13.9424  17.7278  20.6100  21.5977  23.0367
    25.5499  25.8991  26.1734  26.5961

          k =-0.3000 0.5000-0.3000 (  2202 PWs)   bands (ev):

   -88.9003 -49.2996 -49.2991 -49.2990   7.3166   9.2042   9.4402   9.5036
     9.7166   9.9506  10.8627  11.3800  11.6249  12.0849  12.2680  12.3799
    13.2590  13.2745  13.7801  13.9406  15.8063  20.1530  20.6012  22.8292
    25.6171  25.9106  26.4971  27.6043

          k = 0.6000-0.4000 0.6000 (  2203 PWs)   bands (ev):

   -88.9003 -49.2997 -49.2990 -49.2990   7.8450   9.2177   9.4084   9.6485
     9.7848  10.0359  10.6706  11.5063  11.6118  11.9522  12.0734  12.3054
    13.2765  13.3431  13.8923  13.8967  14.7373  19.8876  20.1627  22.7803
    25.5872  25.5931  26.5593  29.4709

          k = 0.5000-0.3000 0.5000 (  2213 PWs)   bands (ev):

   -88.9004 -49.2998 -49.2991 -49.2990   7.7193   9.2590   9.3951   9.6080
     9.8133   9.9440  10.7436  11.4500  11.6301  11.9828  12.1147  12.3078
    13.2477  13.3554  13.7989  13.9646  14.9856  19.5971  20.6803  22.8908
    25.3049  25.4901  26.8034  29.7810

          k = 0.4000-0.2000 0.4000 (  2201 PWs)   bands (ev):

   -88.9003 -49.2996 -49.2991 -49.2991   7.0559   9.2978   9.3994   9.4885
     9.7432   9.7824  10.9764  11.3025  11.5655  12.1818  12.3663  12.3873
    13.2133  13.2876  13.7189  13.9740  16.4026  19.7654  21.6377  23.1790
    25.1203  25.3517  27.0269  28.1227

          k = 0.3000-0.1000 0.3000 (  2201 PWs)   bands (ev):

   -88.9003 -49.2995 -49.2992 -49.2992   6.3013   9.3549   9.3861   9.4526
     9.5822   9.6814  11.0800  11.1760  11.4236  12.4998  12.5969  12.5969
    13.1750  13.1984  13.7170  13.9473  18.5094  20.3104  22.8994  23.6721
    25.0624  25.1167  26.5167  26.6761

          k = 0.2000 0.0000 0.2000 (  2185 PWs)   bands (ev):

   -88.9002 -49.2994 -49.2992 -49.2992   5.7315   9.3173   9.3691   9.4694
     9.5568   9.6129  11.0638  11.0968  11.2599  12.7202  12.7377  12.8926
    13.1173  13.1970  13.7776  13.9107  20.8934  21.1984  24.2063  24.3339
    24.6113  24.9865  25.5638  25.9237

          k = 0.0000 0.4000 0.0000 (  2217 PWs)   bands (ev):

   -88.9005 -49.2998 -49.2993 -49.2993   6.1729   9.1440   9.2904   9.6271
     9.6271   9.6344  10.7866  11.5027  11.5027  12.6473  12.6991  12.9935
    12.9935  13.0377  13.5681  13.9517  20.2946  20.2946  21.0608  22.8717
    23.1500  26.9817  26.9817  27.8155

          k =-0.1000 0.5000-0.1000 (  2204 PWs)   bands (ev):

   -88.9003 -49.2996 -49.2991 -49.2991   6.7360   9.0080   9.2643   9.6069
     9.6449   9.8682  10.7726  11.6532  11.6937  12.4565  12.5595  12.7508
    13.0639  13.1490  13.5029  13.9567  18.3063  19.3991  20.0876  22.7899
    23.6537  27.2626  27.4459  28.5706

          k =-0.2000 0.6000-0.2000 (  2199 PWs)   bands (ev):

   -88.9003 -49.2997 -49.2990 -49.2989   7.4689   8.9133   9.3108   9.5637
     9.6757  10.1027  10.8606  11.6855  11.8458  12.0554  12.3843  12.5674
    13.1537  13.2606  13.6291  13.9541  16.2559  18.8830  19.0942  22.6973
    25.1229  27.1664  27.3938  28.6714

          k = 0.7000-0.3000 0.7000 (  2208 PWs)   bands (ev):

   -88.9003 -49.2998 -49.2991 -49.2989   8.0738   8.9217   9.3959   9.5138
     9.7264  10.2337  10.9950  11.6562  11.6783  11.9742  12.2407  12.4361
    13.1360  13.3791  13.8664  13.9257  14.8218  18.2435  18.8935  22.7006
    26.7273  27.0163  27.0219  28.9437

          k = 0.6000-0.2000 0.6000 (  2223 PWs)   bands (ev):

   -88.9005 -49.2999 -49.2992 -49.2991   8.1204   9.0606   9.4749   9.4855
     9.7024  10.1408  11.1558  11.4537  11.6865  12.1017  12.1182  12.3605
    13.1077  13.3914  13.7806  14.0107  14.7059  17.7248  19.4794  22.8151
    26.5179  26.5676  28.1914  29.8362

          k = 0.5000-0.1000 0.5000 (  2208 PWs)   bands (ev):

   -88.9003 -49.2997 -49.2991 -49.2991   7.6305   9.1578   9.4561   9.4729
     9.7107   9.8865  11.2392  11.3284  11.7912  11.9847  12.3064  12.3781
    13.1155  13.3894  13.5645  14.0405  15.8873  17.6789  20.5233  23.0481
    26.1699  26.2114  27.6322  28.4413

          k = 0.4000 0.0000 0.4000 (  2203 PWs)   bands (ev):

   -88.9003 -49.2995 -49.2992 -49.2991   6.9176   9.2425   9.4424   9.4631
     9.6560   9.7245  11.1881  11.2296  11.6416  12.2196  12.4664  12.4830
    13.1602  13.2807  13.5703  14.0077  17.5719  18.2819  21.8088  23.3863
    25.7415  25.7661  26.6130  27.0439

          k = 0.0000 0.6000 0.0000 (  2209 PWs)   bands (ev):

   -88.9004 -49.2998 -49.2990 -49.2990   7.2078   8.8027   9.1468   9.6797
     9.6797  10.0747  10.6500  11.8714  11.8714  12.4295  12.5656  12.9659
    13.0383  13.0383  13.3451  13.9646  18.3478  18.3478  18.3532  22.5304
    22.8475  28.5946  28.5946  30.2275

          k =-0.1000 0.7000-0.1000 (  2205 PWs)   bands (ev):

   -88.9003 -49.2998 -49.2990 -49.2989   7.8724   8.6662   9.1121   9.6748
     9.7004  10.3423  10.6414  11.9371  11.9459  12.1375  12.5089  12.8243
    13.1026  13.2895  13.4989  13.9907  16.5608  17.6381  17.6567  22.6016
    23.3530  28.9839  29.0756  31.0081

          k = 0.8000-0.2000 0.8000 (  2200 PWs)   bands (ev):

   -88.9002 -49.2999 -49.2990 -49.2988   8.4275   8.7021   9.1579   9.6272
     9.7034  10.5557  10.7661  11.6136  11.9848  12.1254  12.3937  12.7092
    12.9974  13.5150  13.8762  14.0804  14.9825  16.7580  17.5468  22.6387
    24.8515  28.6925  28.7229  30.9642

          k = 0.7000-0.1000 0.7000 (  2216 PWs)   bands (ev):

   -88.9004 -49.3000 -49.2991 -49.2989   8.4249   9.0187   9.2709   9.5656
     9.6402  10.5035  11.0538  11.3846  12.0141  12.1873  12.2951  12.5533
    12.9378  13.4563  13.9668  14.0635  14.6262  16.1001  18.1288  22.7254
    26.7538  28.0551  28.2143  29.8647

          k = 0.6000-0.0000 0.6000 (  2203 PWs)   bands (ev):

   -88.9003 -49.2998 -49.2990 -49.2989   8.1683   9.0955   9.4069   9.5089
     9.6106  10.1826  11.3173  11.3604  11.8764  12.1266  12.2391  12.4222
    12.9925  13.3182  13.7115  14.0835  15.4762  16.1284  19.2192  22.8713
    27.2387  27.5485  27.9361  29.1984

          k = 0.0000 0.8000 0.0000 (  2201 PWs)   bands (ev):

   -88.9002 -49.2999 -49.2989 -49.2989   8.4235   8.5317   9.0205   9.7287
     9.7287  10.4201  10.6264  11.9551  11.9920  11.9920  12.5553  12.9027
    13.2242  13.5695  13.5695  14.0673  16.0974  16.7181  16.7181  22.4176
    22.7589  30.6765  30.6766  32.1683

          k = 0.9000-0.1000 0.9000 (  2203 PWs)   bands (ev):

   -88.9003 -49.3001 -49.2989 -49.2988   8.4396   8.8853   9.1665   9.6966
     9.7148  10.3471  10.9064  11.5304  12.0123  12.1043  12.5187  12.8585
    13.0787  13.8692  13.9737  14.2886  15.1132  15.8781  16.3957  22.5634
    23.2530  30.5621  30.9383  32.6561

          k = 0.8000 0.0000 0.8000 (  2215 PWs)   bands (ev):

   -88.9004 -49.3001 -49.2990 -49.2989   8.4582   9.0532   9.2446   9.5989
     9.6510  10.6666  10.9572  11.2253  12.0835  12.2202  12.4227  12.7797
    12.9076  13.8911  14.1054  14.2189  14.8479  15.1268  16.9707  22.6396
    24.7804  29.4542  30.1895  30.6412

          k = 0.0000-1.0000 0.0000 (  2200 PWs)   bands (ev):

   -88.9002 -49.3002 -49.2987 -49.2987   8.3868   8.8638   9.5929   9.7490
     9.7490   9.8764  11.0762  11.5214  11.9870  11.9870  12.5607  12.8780
    13.1911  14.1017  14.1017  14.3895  14.9013  15.8546  15.8546  22.4043
    22.7366  32.1007  32.6435  32.6435

          k =-0.2000 0.4000 0.0000 (  2196 PWs)   bands (ev):

   -88.9003 -49.2995 -49.2992 -49.2991   6.3664   9.1964   9.3552   9.5296
     9.5967   9.7211  10.9036  11.4003  11.5238  12.5153  12.5979  12.6988
    13.1222  13.1718  13.6198  13.9572  19.0556  19.5456  21.7890  23.7518
    23.9912  25.9623  26.6311  27.7504

          k =-0.3000 0.5000-0.1000 (  2201 PWs)   bands (ev):

   -88.9003 -49.2996 -49.2992 -49.2991   7.0623   9.1013   9.4037   9.5202
     9.6300   9.8874  10.9737  11.4655  11.7004  12.1901  12.4356  12.5086
    13.1566  13.2725  13.5902  13.9825  17.0063  18.7628  20.6924  23.4701
    25.0687  26.0020  26.8991  28.3691

          k = 0.6000-0.4000 0.8000 (  2215 PWs)   bands (ev):

   -88.9004 -49.2998 -49.2991 -49.2991   7.7708   9.0539   9.4509   9.5073
     9.7023  10.0531  11.0394  11.4676  11.7623  11.9443  12.2552  12.3864
    13.1483  13.3844  13.7020  13.9893  15.3058  18.4815  19.7331  23.2442
    25.3521  26.8851  27.4088  28.4970

          k = 0.5000-0.3000 0.7000 (  2204 PWs)   bands (ev):

   -88.9003 -49.2998 -49.2990 -49.2990   8.0906   9.0480   9.4483   9.5379
     9.7480  10.1300  11.0446  11.4973  11.6263  11.9966  12.1510  12.3381
    13.1400  13.4434  13.8172  13.9687  14.5814  18.4965  19.2660  23.1697
    25.3411  27.1381  27.7773  29.7365

          k =-0.2000 0.6000 0.0000 (  2207 PWs)   bands (ev):

   -88.9003 -49.2998 -49.2991 -49.2990   7.3492   8.8551   9.2326   9.6167
     9.6691  10.0856  10.7795  11.7875  11.8703  12.1952  12.4982  12.6744
    13.0936  13.2378  13.4819  13.9713  17.2912  17.9061  19.1155  23.3183
    23.5738  27.1765  28.4064  30.0315

          k = 0.7000-0.3000 0.9000 (  2211 PWs)   bands (ev):

   -88.9004 -49.2998 -49.2991 -49.2990   8.0355   8.7771   9.2586   9.5853
     9.7033  10.2969  10.8931  11.8086  11.8535  11.9805  12.3910  12.5795
    13.0203  13.4497  13.6686  14.0132  15.6550  17.2864  18.2414  23.3710
    24.9525  26.7557  28.8669  30.2540

          k = 0.6000-0.2000 0.8000 (  2221 PWs)   bands (ev):

   -88.9004 -49.2999 -49.2992 -49.2990   8.4008   8.8502   9.3169   9.5531
     9.7287  10.3837  11.1070  11.4981  11.8705  12.0333  12.3340  12.4605
    12.9561  13.5842  13.8851  14.0861  14.5147  16.9658  17.9564  23.4424
    26.1781  26.9450  28.7163  29.4425

          k = 0.5000-0.1000 0.7000 (  2217 PWs)   bands (ev):

   -88.9004 -49.2998 -49.2991 -49.2991   8.2519   8.9488   9.3781   9.5485
     9.6758  10.2498  11.2298  11.4612  11.8244  12.0360  12.3300  12.4029
    12.9653  13.4934  13.7342  14.0762  15.0049  16.6722  18.5786  23.6456
    25.8605  27.3366  28.5493  28.9576

          k = 0.4000 0.0000 0.6000 (  2210 PWs)   bands (ev):

   -88.9004 -49.2997 -49.2991 -49.2991   7.7211   8.9944   9.4036   9.5506
     9.6345  10.0370  11.0952  11.5584  11.8668  11.9687  12.3800  12.4291
    13.0546  13.4529  13.5089  14.0372  16.2602  17.0256  19.5988  23.9083
    25.2542  26.2104  27.8643  29.4033

          k = 0.8000-0.2000 1.0000 (  2202 PWs)   bands (ev):

   -88.9003 -49.2999 -49.2990 -49.2988   8.4730   8.5796   9.0845   9.6518
     9.7398  10.5901  10.6288  11.7208  11.9879  12.1204  12.4845  12.7870
    13.0041  13.6128  13.7506  14.0956  15.7001  16.4747  16.9519  23.1731
    23.3969  28.6596  30.4576  31.7228

          k = 0.7000-0.1000 0.9000 (  2210 PWs)   bands (ev):

   -88.9003 -49.3000 -49.2990 -49.2989   8.5262   8.9310   9.1255   9.6062
     9.7458  10.7556  10.8037  11.3879  12.0053  12.2221  12.4274  12.6355
    12.8922  13.7797  14.0731  14.4026  14.6259  15.7750  16.7052  23.3503
    24.8502  28.0296  29.7875  30.7879

          k = 0.6000 0.0000 0.8000 (  2218 PWs)   bands (ev):

   -88.9004 -49.2999 -49.2992 -49.2990   8.4987   8.9810   9.2405   9.5883
     9.6877  10.5743  11.1288  11.3235  12.0371  12.1331  12.4070  12.4814
    12.8614  13.6648  13.9289  14.1613  15.0141  15.3803  17.4515  23.5103
    26.8339  27.2221  28.0735  29.8899

          k =-0.2000-1.0000 0.0000 (  2220 PWs)   bands (ev):

   -88.9004 -49.3002 -49.2990 -49.2989   8.4428   8.9601   9.3074   9.5984
     9.7689  10.3946  11.1584  11.2087  11.9785  12.2136  12.4951  12.8062
    12.9673  13.9612  14.1675  14.6076  14.7023  15.7200  15.8431  23.1530
    23.3469  29.7792  30.9604  32.1685

          k = 0.6000-0.2000 1.0000 (  2204 PWs)   bands (ev):

   -88.9003 -49.2998 -49.2990 -49.2989   8.5266   8.7263   9.2386   9.5845
     9.7485  10.4918  11.0299  11.5497  11.9777  11.9935  12.4078  12.5282
    12.8861  13.6775  13.8589  14.1592  15.2062  15.9425  17.2733  24.7464
    25.0253  26.3674  29.2277  30.0833

          k = 0.5000-0.1000 0.9000 (  2216 PWs)   bands (ev):

   -88.9004 -49.2999 -49.2992 -49.2990   8.6500   8.7758   9.2333   9.5901
     9.7799  10.5981  11.1971  11.3421  11.9901  12.0447  12.3881  12.4812
    12.8574  13.7567  14.1115  14.3699  14.5268  15.7870  16.7147  24.8421
    25.8381  27.1393  27.2289  30.5965

          k =-0.4000-1.0000 0.0000 (  2212 PWs)   bands (ev):

   -88.9003 -49.3000 -49.2991 -49.2990   8.6136   8.9046   9.1489   9.6052
     9.8099  10.8218  10.9888  11.2853  11.9591  12.2957  12.3441  12.4790
    12.8740  13.8364  14.2696  14.4043  14.9814  15.3863  15.8242  24.9506
    25.0417  27.1844  27.9246  31.6800

     the Fermi energy is    14.0592 ev

!    total energy              =   -1389.42817779 Ry

     total all-electron energy =    -43178.927959 Ry
     estimated scf accuracy    <       0.00000004 Ry
     smearing contrib. (-TS)   =      -0.00444267 Ry
     internal energy E=F+TS    =   -1389.42373512 Ry

     The total energy is F=E-TS. E is the sum of the following terms:
     one-electron contribution =    -267.48126601 Ry
     hartree contribution      =     173.25847163 Ry
     xc contribution           =    -103.01945697 Ry
     ewald contribution        =    -326.48143420 Ry
     one-center paw contrib.   =    -865.70004956 Ry

     convergence has been achieved in  13 iterations

     Writing output data file ././cunipt.save/

     init_run     :      3.10s CPU      3.15s WALL (       1 calls)
     electrons    :     93.52s CPU     94.52s WALL (       1 calls)

     Called by init_run:
     wfcinit      :      2.02s CPU      2.03s WALL (       1 calls)
     potinit      :      0.34s CPU      0.35s WALL (       1 calls)
     hinit0       :      0.67s CPU      0.67s WALL (       1 calls)

     Called by electrons:
     c_bands      :     77.00s CPU     77.10s WALL (      13 calls)
     sum_band     :     11.53s CPU     12.02s WALL (      13 calls)
     v_of_rho     :      0.26s CPU      0.26s WALL (      14 calls)
     newd         :      0.65s CPU      1.10s WALL (      14 calls)
     PAW_pot      :      4.40s CPU      4.41s WALL (      14 calls)
     mix_rho      :      0.04s CPU      0.04s WALL (      13 calls)

     Called by c_bands:
     init_us_2    :      0.81s CPU      0.81s WALL (    1269 calls)
     cegterg      :     74.14s CPU     74.22s WALL (     611 calls)

     Called by *egterg:
     cdiaghg      :      1.73s CPU      1.73s WALL (    2474 calls)
     h_psi        :     44.90s CPU     44.98s WALL (    2521 calls)
     s_psi        :      6.29s CPU      6.29s WALL (    2521 calls)
     g_psi        :      0.24s CPU      0.24s WALL (    1863 calls)

     Called by h_psi:
     h_psi:calbec :      5.78s CPU      5.79s WALL (    2521 calls)
     vloc_psi     :     32.65s CPU     32.73s WALL (    2521 calls)
     add_vuspsi   :      6.32s CPU      6.33s WALL (    2521 calls)

     General routines
     calbec       :      8.06s CPU      8.06s WALL (    3132 calls)
     fft          :      0.12s CPU      0.12s WALL (     154 calls)
     ffts         :      0.01s CPU      0.01s WALL (      13 calls)
     fftw         :     35.17s CPU     35.25s WALL (  102454 calls)

     Parallel routines

     PWSCF        :   1m36.84s CPU   1m37.92s WALL


   This run was terminated on:  20:33:58  13Sep2024            

=------------------------------------------------------------------------------=
   JOB DONE.
=------------------------------------------------------------------------------=
