
     Program PWSCF v.6.7MaX starts on 13Sep2024 at 20:41:37 

     This program is part of the open-source Quantum ESPRESSO suite
     for quantum simulation of materials; please cite
         "P. Giannozzi et al., J. Phys.:Condens. Matter 21 395502 (2009);
         "P. Giannozzi et al., J. Phys.:Condens. Matter 29 465901 (2017);
          URL http://www.quantum-espresso.org", 
     in publications or presentations arising from this work. More details at
     http://www.quantum-espresso.org/quote

     Parallel version (MPI), running on     1 processors

     MPI processes distributed on     1 nodes
     Waiting for input...
     Reading input from standard input

     Current dimensions of program PWSCF are:
     Max number of different atomic species (ntypx) = 10
     Max number of k-points (npk) =  40000
     Max angular momentum in pseudopotentials (lmaxx) =  3
     file Cu.upf: wavefunction(s)  4S 3D renormalized
     file Ni.upf: wavefunction(s)  3P 3D renormalized
     file Pt.upf: wavefunction(s)  6S 5D renormalized

     Subspace diagonalization in iterative solution of the eigenvalue problem:
     a serial algorithm will be used


     G-vector sticks info
     --------------------
     sticks:   dense  smooth     PW     G-vecs:    dense   smooth      PW
     Sum         967     967    301                20179    20179    3383



     bravais-lattice index     =            2
     lattice parameter (alat)  =      10.9000  a.u.
     unit-cell volume          =     323.7572 (a.u.)^3
     number of atoms/cell      =            3
     number of atomic types    =            3
     number of electrons       =        39.00
     number of Kohn-Sham states=           28
     kinetic-energy cutoff     =      60.0000  Ry
     charge density cutoff     =     240.0000  Ry
     scf convergence threshold =      1.0E-07
     mixing beta               =       0.7000
     number of iterations used =            8  plain     mixing
     Exchange-correlation= SLA  PW   PBX  PBC
                           (   1   4   3   4   0   0   0)

     celldm(1)=  10.900000  celldm(2)=   0.000000  celldm(3)=   0.000000
     celldm(4)=   0.000000  celldm(5)=   0.000000  celldm(6)=   0.000000

     crystal axes: (cart. coord. in units of alat)
               a(1) = (  -0.500000   0.000000   0.500000 )  
               a(2) = (   0.000000   0.500000   0.500000 )  
               a(3) = (  -0.500000   0.500000   0.000000 )  

     reciprocal axes: (cart. coord. in units 2 pi/alat)
               b(1) = ( -1.000000 -1.000000  1.000000 )  
               b(2) = (  1.000000  1.000000  1.000000 )  
               b(3) = ( -1.000000  1.000000 -1.000000 )  


     PseudoPot. # 1 for Cu read from file:
     ././Cu.upf
     MD5 check sum: cfffd1f38ee05704b3e17f46f1730a6f
     Pseudo is Projector augmented-wave + core cor, Zval = 11.0
     Generated using &quot;atomic&quot; code by A. Dal Corso  v.6.3
     Shape of augmentation charge: PSQ
     Using radial grid of 1199 points,  6 beta functions with: 
                l(1) =   0
                l(2) =   0
                l(3) =   1
                l(4) =   1
                l(5) =   2
                l(6) =   2
     Q(r) pseudized with 0 coefficients 


     PseudoPot. # 2 for Ni read from file:
     ././Ni.upf
     MD5 check sum: 6e86b733589c3ad8389697b807d86aa7
     Pseudo is Projector augmented-wave + core cor, Zval = 18.0
     Generated using &quot;atomic&quot; code by A. Dal Corso  v.6.3
     Shape of augmentation charge: PSQ
     Using radial grid of 1195 points,  6 beta functions with: 
                l(1) =   0
                l(2) =   0
                l(3) =   1
                l(4) =   1
                l(5) =   2
                l(6) =   2
     Q(r) pseudized with 0 coefficients 


     PseudoPot. # 3 for Pt read from file:
     ././Pt.upf
     MD5 check sum: c5224e9cd7a5e36e81f2def9f50bb494
     Pseudo is Projector augmented-wave + core cor, Zval = 10.0
     Generated using &quot;atomic&quot; code by A. Dal Corso  v.6.3
     Shape of augmentation charge: PSQ
     Using radial grid of 1277 points,  6 beta functions with: 
                l(1) =   0
                l(2) =   0
                l(3) =   1
                l(4) =   1
                l(5) =   2
                l(6) =   2
     Q(r) pseudized with 0 coefficients 


     atomic species   valence    mass     pseudopotential
        Cu            11.00    63.54600     Cu( 1.00)
        Ni            18.00    58.69300     Ni( 1.00)
        Pt            10.00   195.08000     Pt( 1.00)

     24 Sym. Ops. (no inversion) found



   Cartesian axes

     site n.     atom                  positions (alat units)
         1           Cu  tau(   1) = (   0.0000000   0.0000000   0.0000000  )
         2           Ni  tau(   2) = (   0.5000000   0.5000000   0.5000000  )
         3           Pt  tau(   3) = (   0.2500000   0.2500000   0.2500000  )

     number of k points=    47  Gaussian smearing, width (Ry)=  0.0100
                       cart. coord. in units 2pi/alat
        k(    1) = (   0.0000000   0.0000000   0.0000000), wk =   0.0020000
        k(    2) = (  -0.1000000   0.1000000  -0.1000000), wk =   0.0160000
        k(    3) = (  -0.2000000   0.2000000  -0.2000000), wk =   0.0160000
        k(    4) = (  -0.3000000   0.3000000  -0.3000000), wk =   0.0160000
        k(    5) = (  -0.4000000   0.4000000  -0.4000000), wk =   0.0160000
        k(    6) = (   0.5000000  -0.5000000   0.5000000), wk =   0.0080000
        k(    7) = (   0.0000000   0.2000000   0.0000000), wk =   0.0120000
        k(    8) = (  -0.1000000   0.3000000  -0.1000000), wk =   0.0480000
        k(    9) = (  -0.2000000   0.4000000  -0.2000000), wk =   0.0480000
        k(   10) = (  -0.3000000   0.5000000  -0.3000000), wk =   0.0480000
        k(   11) = (   0.6000000  -0.4000000   0.6000000), wk =   0.0480000
        k(   12) = (   0.5000000  -0.3000000   0.5000000), wk =   0.0480000
        k(   13) = (   0.4000000  -0.2000000   0.4000000), wk =   0.0480000
        k(   14) = (   0.3000000  -0.1000000   0.3000000), wk =   0.0480000
        k(   15) = (   0.2000000   0.0000000   0.2000000), wk =   0.0240000
        k(   16) = (   0.0000000   0.4000000   0.0000000), wk =   0.0120000
        k(   17) = (  -0.1000000   0.5000000  -0.1000000), wk =   0.0480000
        k(   18) = (  -0.2000000   0.6000000  -0.2000000), wk =   0.0480000
        k(   19) = (   0.7000000  -0.3000000   0.7000000), wk =   0.0480000
        k(   20) = (   0.6000000  -0.2000000   0.6000000), wk =   0.0480000
        k(   21) = (   0.5000000  -0.1000000   0.5000000), wk =   0.0480000
        k(   22) = (   0.4000000   0.0000000   0.4000000), wk =   0.0240000
        k(   23) = (   0.0000000   0.6000000   0.0000000), wk =   0.0120000
        k(   24) = (  -0.1000000   0.7000000  -0.1000000), wk =   0.0480000
        k(   25) = (   0.8000000  -0.2000000   0.8000000), wk =   0.0480000
        k(   26) = (   0.7000000  -0.1000000   0.7000000), wk =   0.0480000
        k(   27) = (   0.6000000  -0.0000000   0.6000000), wk =   0.0240000
        k(   28) = (   0.0000000   0.8000000   0.0000000), wk =   0.0120000
        k(   29) = (   0.9000000  -0.1000000   0.9000000), wk =   0.0480000
        k(   30) = (   0.8000000   0.0000000   0.8000000), wk =   0.0240000
        k(   31) = (   0.0000000  -1.0000000   0.0000000), wk =   0.0060000
        k(   32) = (  -0.2000000   0.4000000   0.0000000), wk =   0.0480000
        k(   33) = (  -0.3000000   0.5000000  -0.1000000), wk =   0.0960000
        k(   34) = (   0.6000000  -0.4000000   0.8000000), wk =   0.0960000
        k(   35) = (   0.5000000  -0.3000000   0.7000000), wk =   0.0480000
        k(   36) = (  -0.2000000   0.6000000   0.0000000), wk =   0.0480000
        k(   37) = (   0.7000000  -0.3000000   0.9000000), wk =   0.0960000
        k(   38) = (   0.6000000  -0.2000000   0.8000000), wk =   0.0960000
        k(   39) = (   0.5000000  -0.1000000   0.7000000), wk =   0.0960000
        k(   40) = (   0.4000000   0.0000000   0.6000000), wk =   0.0480000
        k(   41) = (   0.8000000  -0.2000000   1.0000000), wk =   0.0480000
        k(   42) = (   0.7000000  -0.1000000   0.9000000), wk =   0.0960000
        k(   43) = (   0.6000000   0.0000000   0.8000000), wk =   0.0480000
        k(   44) = (  -0.2000000  -1.0000000   0.0000000), wk =   0.0240000
        k(   45) = (   0.6000000  -0.2000000   1.0000000), wk =   0.0480000
        k(   46) = (   0.5000000  -0.1000000   0.9000000), wk =   0.0480000
        k(   47) = (  -0.4000000  -1.0000000   0.0000000), wk =   0.0240000

     Dense  grid:    20179 G-vectors     FFT dimensions: (  40,  40,  40)

     Estimated max dynamical RAM per process >     129.53 MB

     Check: negative core charge=   -0.000002

     Initial potential from superposition of free atoms

     starting charge   38.99935, renormalised to   39.00000
     Starting wfcs are   28 randomized atomic wfcs
     Checking if some PAW data can be deallocated... 

     total cpu time spent up to now is        3.6 secs

     Self-consistent Calculation

     iteration #  1     ecut=    60.00 Ry     beta= 0.70
     Davidson diagonalization with overlap
     ethr =  1.00E-02,  avg # of iterations =  5.9

     total cpu time spent up to now is       13.1 secs

     total energy              =   -1387.96586247 Ry
     estimated scf accuracy    <       1.91438331 Ry

     iteration #  2     ecut=    60.00 Ry     beta= 0.70
     Davidson diagonalization with overlap
     ethr =  4.91E-03,  avg # of iterations =  3.2

     total cpu time spent up to now is       23.6 secs

     total energy              =   -1385.89149647 Ry
     estimated scf accuracy    <      54.27386228 Ry

     iteration #  3     ecut=    60.00 Ry     beta= 0.70
     Davidson diagonalization with overlap
     ethr =  4.91E-03,  avg # of iterations =  4.0

     total cpu time spent up to now is       33.1 secs

     total energy              =   -1389.40667831 Ry
     estimated scf accuracy    <       0.63593139 Ry

     iteration #  4     ecut=    60.00 Ry     beta= 0.70
     Davidson diagonalization with overlap
     ethr =  1.63E-03,  avg # of iterations =  2.0

     total cpu time spent up to now is       41.1 secs

     total energy              =   -1389.45320166 Ry
     estimated scf accuracy    <       0.10494457 Ry

     iteration #  5     ecut=    60.00 Ry     beta= 0.70
     Davidson diagonalization with overlap
     ethr =  2.69E-04,  avg # of iterations =  1.6

     total cpu time spent up to now is       48.5 secs

     total energy              =   -1389.45421973 Ry
     estimated scf accuracy    <       0.03232334 Ry

     iteration #  6     ecut=    60.00 Ry     beta= 0.70
     Davidson diagonalization with overlap
     ethr =  8.29E-05,  avg # of iterations =  2.4

     total cpu time spent up to now is       56.3 secs

     total energy              =   -1389.45846825 Ry
     estimated scf accuracy    <       0.01346539 Ry

     iteration #  7     ecut=    60.00 Ry     beta= 0.70
     Davidson diagonalization with overlap
     ethr =  3.45E-05,  avg # of iterations =  2.0

     total cpu time spent up to now is       63.2 secs

     total energy              =   -1389.46013032 Ry
     estimated scf accuracy    <       0.00463412 Ry

     iteration #  8     ecut=    60.00 Ry     beta= 0.70
     Davidson diagonalization with overlap
     ethr =  1.19E-05,  avg # of iterations =  3.0

     total cpu time spent up to now is       70.5 secs

     total energy              =   -1389.46065109 Ry
     estimated scf accuracy    <       0.00022238 Ry

     iteration #  9     ecut=    60.00 Ry     beta= 0.70
     Davidson diagonalization with overlap
     ethr =  5.70E-07,  avg # of iterations =  5.6

     total cpu time spent up to now is       81.8 secs

     total energy              =   -1389.46078214 Ry
     estimated scf accuracy    <       0.00001855 Ry

     iteration # 10     ecut=    60.00 Ry     beta= 0.70
     Davidson diagonalization with overlap
     ethr =  4.76E-08,  avg # of iterations =  2.5

     total cpu time spent up to now is       89.3 secs

     total energy              =   -1389.46078231 Ry
     estimated scf accuracy    <       0.00001974 Ry

     iteration # 11     ecut=    60.00 Ry     beta= 0.70
     Davidson diagonalization with overlap
     ethr =  4.76E-08,  avg # of iterations =  1.2

     total cpu time spent up to now is       95.8 secs

     total energy              =   -1389.46078546 Ry
     estimated scf accuracy    <       0.00001163 Ry

     iteration # 12     ecut=    60.00 Ry     beta= 0.70
     Davidson diagonalization with overlap
     ethr =  2.98E-08,  avg # of iterations =  1.4

     total cpu time spent up to now is      102.5 secs

     total energy              =   -1389.46078665 Ry
     estimated scf accuracy    <       0.00002141 Ry

     iteration # 13     ecut=    60.00 Ry     beta= 0.70
     Davidson diagonalization with overlap
     ethr =  2.98E-08,  avg # of iterations =  1.0

     total cpu time spent up to now is      109.0 secs

     total energy              =   -1389.46079157 Ry
     estimated scf accuracy    <       0.00002349 Ry

     iteration # 14     ecut=    60.00 Ry     beta= 0.70
     Davidson diagonalization with overlap
     ethr =  2.98E-08,  avg # of iterations =  1.0

     total cpu time spent up to now is      115.4 secs

     total energy              =   -1389.46078395 Ry
     estimated scf accuracy    <       0.00003943 Ry

     iteration # 15     ecut=    60.00 Ry     beta= 0.70
     Davidson diagonalization with overlap
     ethr =  2.98E-08,  avg # of iterations =  1.0

     total cpu time spent up to now is      121.9 secs

     total energy              =   -1389.46078741 Ry
     estimated scf accuracy    <       0.00001879 Ry

     iteration # 16     ecut=    60.00 Ry     beta= 0.70
     Davidson diagonalization with overlap
     ethr =  2.98E-08,  avg # of iterations =  1.0

     total cpu time spent up to now is      128.4 secs

     total energy              =   -1389.46078235 Ry
     estimated scf accuracy    <       0.00002681 Ry

     iteration # 17     ecut=    60.00 Ry     beta= 0.70
     Davidson diagonalization with overlap
     ethr =  2.98E-08,  avg # of iterations =  1.0

     total cpu time spent up to now is      134.9 secs

     total energy              =   -1389.46077844 Ry
     estimated scf accuracy    <       0.00001258 Ry

     iteration # 18     ecut=    60.00 Ry     beta= 0.70
     Davidson diagonalization with overlap
     ethr =  2.98E-08,  avg # of iterations =  1.9

     total cpu time spent up to now is      142.1 secs

     total energy              =   -1389.46077845 Ry
     estimated scf accuracy    <       0.00000163 Ry

     iteration # 19     ecut=    60.00 Ry     beta= 0.70
     Davidson diagonalization with overlap
     ethr =  4.18E-09,  avg # of iterations =  2.6

     total cpu time spent up to now is      150.4 secs

     End of self-consistent calculation

          k = 0.0000 0.0000 0.0000 (  2637 PWs)   bands (ev):

   -91.2932 -51.6839 -51.6839 -51.6839   3.7095   7.5187   7.5187   7.7076
     7.7076   7.7076   8.9561   8.9561   8.9561  10.3764  10.3764  10.7251
    10.7251  10.7251  11.2533  11.2533  19.9469  21.0828  21.0828  21.0828
    21.1590  21.1590  21.1590  22.0277

          k =-0.1000 0.1000-0.1000 (  2568 PWs)   bands (ev):

   -91.2926 -51.6836 -51.6836 -51.6836   3.8592   7.5461   7.5461   7.6729
     7.7096   7.7096   8.9709   8.9873   8.9873  10.3565  10.3565  10.6174
    10.7100  10.7100  11.2499  11.2499  18.4646  20.0840  20.0840  20.1615
    21.8324  22.0652  22.0653  22.3760

          k =-0.2000 0.2000-0.2000 (  2553 PWs)   bands (ev):

   -91.2924 -51.6838 -51.6835 -51.6835   4.2905   7.5879   7.5879   7.6062
     7.7530   7.7530   8.9692   9.0722   9.0722  10.2606  10.2606  10.3599
    10.6995  10.6995  11.2503  11.2503  16.0868  19.1335  19.1335  20.1236
    21.7339  21.9172  21.9172  22.9973

          k =-0.3000 0.3000-0.3000 (  2551 PWs)   bands (ev):

   -91.2924 -51.6838 -51.6837 -51.6837   4.9391   7.5807   7.5831   7.5831
     7.8832   7.8832   8.8460   9.1882   9.1882  10.0616  10.0616  10.1099
    10.7368  10.7368  11.2625  11.2625  14.0273  18.3364  18.3364  19.9897
    21.5256  21.6219  21.6219  24.3988

          k =-0.4000 0.4000-0.4000 (  2542 PWs)   bands (ev):

   -91.2923 -51.6838 -51.6836 -51.6836   5.6274   7.5645   7.5645   7.6708
     8.0281   8.0281   8.5410   9.3083   9.3083   9.8301   9.8301   9.9795
    10.7934  10.7934  11.2774  11.2774  12.5266  17.7925  17.7925  19.8568
    21.3977  21.4229  21.4229  26.2744

          k = 0.5000-0.5000 0.5000 (  2512 PWs)   bands (ev):

   -91.2921 -51.6838 -51.6835 -51.6835   5.9578   7.5562   7.5562   7.8495
     8.0932   8.0932   8.2460   9.3798   9.3798   9.7049   9.7049   9.9454
    10.8199  10.8199  11.2839  11.2839  11.9492  17.5976  17.5976  19.8053
    21.3546  21.3546  21.3564  26.9232

          k = 0.0000 0.2000 0.0000 (  2573 PWs)   bands (ev):

   -91.2926 -51.6837 -51.6837 -51.6836   3.9096   7.5108   7.5979   7.6357
     7.7201   7.7201   8.8797   9.0521   9.0521  10.3528  10.3530  10.6474
    10.6793  10.6793  11.1903  11.2901  19.0415  19.0415  19.4924  19.8157
    21.2091  22.0610  22.7090  22.7090

          k =-0.1000 0.3000-0.1000 (  2568 PWs)   bands (ev):

   -91.2926 -51.6839 -51.6836 -51.6836   4.2495   7.4858   7.5924   7.6613
     7.7297   7.7694   8.8489   9.1424   9.1670  10.2771  10.2999  10.4577
    10.6559  10.6876  11.1416  11.3082  16.8395  18.1146  19.0039  19.9964
    20.9467  22.1936  22.8695  22.8988

          k =-0.2000 0.4000-0.2000 (  2548 PWs)   bands (ev):

   -91.2924 -51.6837 -51.6837 -51.6836   4.8337   7.4223   7.6216   7.6496
     7.7707   7.9193   8.8628   9.1887   9.3015  10.0677  10.1679  10.2082
    10.7062  10.7131  11.1361  11.3198  14.6602  17.4076  18.1588  19.7344
    22.0205  22.1795  22.6780  22.7219

          k =-0.3000 0.5000-0.3000 (  2531 PWs)   bands (ev):

   -91.2922 -51.6838 -51.6836 -51.6836   5.5335   7.3897   7.6185   7.6748
     7.8625   8.0747   8.7988   9.2221   9.4201   9.8031   9.9699  10.0481
    10.7646  10.7703  11.1878  11.3172  12.9282  17.0193  17.3208  19.5675
    22.0492  22.3292  22.3789  23.8663

          k = 0.6000-0.4000 0.6000 (  2529 PWs)   bands (ev):

   -91.2922 -51.6838 -51.6836 -51.6836   6.0264   7.4099   7.5917   7.7959
     7.8964   8.1464   8.6425   9.3274   9.4185   9.6924   9.7990   9.9691
    10.7798  10.8292  11.2735  11.2809  11.9787  16.7078  17.0396  19.5566
    21.8153  21.9837  22.5547  25.6422

          k = 0.5000-0.3000 0.5000 (  2530 PWs)   bands (ev):

   -91.2922 -51.6838 -51.6836 -51.6836   5.9091   7.4431   7.5800   7.7334
     7.9502   8.0742   8.7046   9.2750   9.4339   9.7164   9.8375   9.9786
    10.7469  10.8465  11.2020  11.3322  12.1969  16.4484  17.4966  19.6994
    21.5871  21.7188  22.9027  25.9286

          k = 0.4000-0.2000 0.4000 (  2548 PWs)   bands (ev):

   -91.2924 -51.6838 -51.6837 -51.6836   5.2956   7.4640   7.5845   7.6505
     7.9082   7.9313   8.8931   9.1489   9.3754   9.8828  10.0470  10.0678
    10.7088  10.7959  11.1396  11.3437  13.4617  16.5776  18.3319  20.0062
    21.4293  21.5700  23.2525  24.1934

          k = 0.3000-0.1000 0.3000 (  2553 PWs)   bands (ev):

   -91.2924 -51.6838 -51.6836 -51.6836   4.6130   7.5147   7.5894   7.6418
     7.7558   7.8333   8.9710   9.0479   9.2560  10.1330  10.2281  10.2545
    10.6943  10.7090  11.1396  11.3249  15.3698  17.0325  19.4316  20.4795
    21.2989  21.5262  22.6962  23.1896

          k = 0.2000 0.0000 0.2000 (  2561 PWs)   bands (ev):

   -91.2925 -51.6837 -51.6836 -51.6836   4.1036   7.5592   7.5836   7.6304
     7.7029   7.7488   8.9605   8.9876   9.1217  10.3000  10.3255  10.4883
    10.6722  10.7071  11.1865  11.2937  17.5793  17.7734  20.5604  20.7206
    21.3032  21.3496  22.0726  22.3330

          k = 0.0000 0.4000 0.0000 (  2573 PWs)   bands (ev):

   -91.2926 -51.6839 -51.6837 -51.6837   4.4962   7.3496   7.5391   7.7552
     7.7552   7.8286   8.7291   9.3120   9.3120  10.2644  10.2790  10.5421
    10.5936  10.5936  11.0290  11.3242  17.1200  17.1200  17.5952  19.1199
    19.9758  23.6289  23.6289  23.8546

          k =-0.1000 0.5000-0.1000 (  2542 PWs)   bands (ev):

   -91.2923 -51.6837 -51.6836 -51.6836   5.0007   7.2212   7.5300   7.7477
     7.7721   8.0141   8.7102   9.4328   9.4637  10.0898  10.2139  10.3605
    10.6384  10.6670  10.9798  11.3304  15.2389  16.3375  16.8082  19.2669
    20.2000  23.7771  23.9488  24.4923

          k =-0.2000 0.6000-0.2000 (  2532 PWs)   bands (ev):

   -91.2922 -51.6838 -51.6836 -51.6835   5.6674   7.1361   7.5712   7.7152
     7.7904   8.2043   8.7757   9.4702   9.5909   9.7808  10.0760  10.2002
    10.6974  10.7585  11.0775  11.3325  13.3738  15.8985  15.9300  19.2508
    21.5348  23.5212  23.7558  24.5599

          k = 0.7000-0.3000 0.7000 (  2529 PWs)   bands (ev):

   -91.2922 -51.6838 -51.6836 -51.6835   6.2393   7.1417   7.6464   7.6754
     7.8029   8.3117   8.8877   9.4643   9.4726   9.7107   9.9482  10.0764
    10.6717  10.8646  11.2591  11.3179  12.0769  15.1776  15.9214  19.2901
    23.0508  23.2376  23.3351  24.8668

          k = 0.6000-0.2000 0.6000 (  2549 PWs)   bands (ev):

   -91.2924 -51.6840 -51.6837 -51.6836   6.2979   7.2575   7.6425   7.6911
     7.7970   8.2417   9.0319   9.2753   9.4836   9.8240   9.8478  10.0206
    10.6331  10.8765  11.2065  11.3707  11.9657  14.7129  16.4382  19.4443
    22.6877  22.9003  24.4457  25.8174

          k = 0.5000-0.1000 0.5000 (  2543 PWs)   bands (ev):

   -91.2923 -51.6838 -51.6837 -51.6836   5.8287   7.3336   7.6242   7.6408
     7.8688   8.0379   9.0966   9.1649   9.5657   9.7271  10.0118  10.0549
    10.6234  10.8812  11.0247  11.3965  13.0301  14.6505  17.3500  19.7283
    22.3917  22.5257  23.8517  24.7800

          k = 0.4000 0.0000 0.4000 (  2533 PWs)   bands (ev):

   -91.2922 -51.6837 -51.6836 -51.6835   5.1697   7.4084   7.6138   7.6450
     7.8440   7.8807   9.0508   9.0866   9.4431   9.9112  10.1418  10.1508
    10.6536  10.8021  11.0207  11.3732  14.5719  15.1500  18.4784  20.1434
    21.9836  22.1177  22.7549  23.5483

          k = 0.0000 0.6000 0.0000 (  2550 PWs)   bands (ev):

   -91.2924 -51.6839 -51.6836 -51.6836   5.4231   7.0444   7.4395   7.8034
     7.8034   8.1889   8.5995   9.6037   9.6037  10.0521  10.2149  10.4718
    10.6490  10.6490  10.8563  11.3352  15.1896  15.4202  15.4202  18.9151
    19.4253  25.0370  25.0370  26.0802

          k =-0.1000 0.7000-0.1000 (  2544 PWs)   bands (ev):

   -91.2923 -51.6839 -51.6836 -51.6836   6.0292   6.9257   7.4124   7.8026
     7.8144   8.4046   8.5815   9.6681   9.6705   9.8274  10.1660  10.3805
    10.6754  10.8265  10.9876  11.3603  13.6838  14.6756  14.8327  19.0441
    19.8288  25.2657  25.3644  26.7975

          k = 0.8000-0.2000 0.8000 (  2534 PWs)   bands (ev):

   -91.2922 -51.6838 -51.6836 -51.6836   6.5919   6.9283   7.4523   7.7664
     7.7785   8.5753   8.6835   9.4255   9.7175   9.8208  10.0695  10.2843
    10.5758  11.0091  11.2724  11.4497  12.2798  13.8478  14.7573  19.1072
    21.2425  24.8578  24.9520  26.8790

          k = 0.7000-0.1000 0.7000 (  2543 PWs)   bands (ev):

   -91.2923 -51.6839 -51.6836 -51.6836   6.6447   7.1927   7.5500   7.6776
     7.7164   8.5392   8.9291   9.2270   9.7572   9.8959   9.9790  10.1664
    10.5068  10.9687  11.3853  11.4118  11.9109  13.2377  15.2675  19.2274
    23.0462  24.3112  24.3675  25.9536

          k = 0.6000-0.0000 0.6000 (  2538 PWs)   bands (ev):

   -91.2923 -51.6838 -51.6836 -51.6836   6.3617   7.2723   7.5961   7.6682
     7.7456   8.2831   9.1553   9.1918   9.6238   9.8587   9.9597  10.0834
    10.5299  10.8258  11.1568  11.4286  12.7049  13.2217  16.2109  19.4358
    23.5385  23.7613  24.0914  25.3818

          k = 0.0000 0.8000 0.0000 (  2518 PWs)   bands (ev):

   -91.2921 -51.6839 -51.6834 -51.6834   6.5602   6.7938   7.3239   7.8461
     7.8461   8.3743   8.6376   9.6836   9.7125   9.7125  10.1935  10.4244
    10.7554  11.0628  11.0628  11.4212  13.1783  14.0391  14.0391  18.8392
    19.2129  26.8389  26.8389  28.3472

          k = 0.9000-0.1000 0.9000 (  2527 PWs)   bands (ev):

   -91.2922 -51.6839 -51.6835 -51.6835   6.7312   7.1083   7.3378   7.7725
     7.8364   8.3144   8.8620   9.3559   9.7365   9.8009  10.1590  10.3912
    10.6448  11.2782  11.3498  11.6120  12.3651  13.2419  13.7933  18.9760
    19.6916  26.6919  26.9457  28.5040

          k = 0.8000 0.0000 0.8000 (  2546 PWs)   bands (ev):

   -91.2923 -51.6840 -51.6836 -51.6836   6.7356   7.3615   7.4103   7.5774
     7.7859   8.5978   8.9026   9.1119   9.8043   9.9000  10.0801  10.3251
    10.5040  11.2907  11.4421  11.6635  12.1012  12.4480  14.2839  19.0772
    21.1587  25.6428  26.2089  26.6754

          k = 0.0000-1.0000 0.0000 (  2498 PWs)   bands (ev):

   -91.2919 -51.6839 -51.6833 -51.6833   6.6887   7.2155   7.5655   7.8634
     7.8634   7.8809   9.0068   9.3353   9.7159   9.7159  10.1888  10.4092
    10.7263  11.4377  11.4377  11.7012  12.1149  13.3663  13.3663  18.8228
    19.1607  28.3804  28.3999  28.3999

          k =-0.2000 0.4000 0.0000 (  2556 PWs)   bands (ev):

   -91.2925 -51.6838 -51.6837 -51.6836   4.6704   7.3859   7.5907   7.6944
     7.7392   7.8790   8.8231   9.2286   9.3346  10.1407  10.2415  10.3258
    10.6653  10.6845  11.0657  11.3321  15.9148  16.3279  18.4162  20.1633
    20.6415  22.4215  23.0023  23.9976

          k =-0.3000 0.5000-0.1000 (  2550 PWs)   bands (ev):

   -91.2924 -51.6838 -51.6837 -51.6836   5.2993   7.2957   7.6249   7.6789
     7.7761   8.0269   8.8744   9.2842   9.4826   9.8880  10.1169  10.1658
    10.6630  10.7895  11.0398  11.3536  14.0362  15.6555  17.4514  20.1130
    21.4623  22.3004  23.2421  24.4977

          k = 0.6000-0.4000 0.8000 (  2541 PWs)   bands (ev):

   -91.2923 -51.6838 -51.6836 -51.6836   5.9556   7.2552   7.6342   7.6913
     7.8251   8.1648   8.9311   9.2968   9.5388   9.6899   9.9633  10.0489
    10.6655  10.8702  11.1315  11.3579  12.5004  15.4166  16.6173  19.9482
    21.5718  23.1895  23.7480  24.4445

          k = 0.5000-0.3000 0.7000 (  2538 PWs)   bands (ev):

   -91.2923 -51.6839 -51.6836 -51.6835   6.2619   7.2556   7.6212   7.7471
     7.8246   8.2271   8.9452   9.3194   9.4281   9.7431   9.8628   9.9977
    10.6620  10.9165  11.2279  11.3409  11.8509  15.4165  16.2299  19.8915
    21.5150  23.5272  23.8565  25.6723

          k =-0.2000 0.6000 0.0000 (  2550 PWs)   bands (ev):

   -91.2924 -51.6839 -51.6837 -51.6836   5.5552   7.0872   7.5090   7.7493
     7.7954   8.1938   8.7073   9.5387   9.6104   9.8873  10.1625  10.2978
    10.6301  10.7805  10.9573  11.3452  14.3373  14.9277  16.0204  19.7187
    20.1460  23.4958  24.8333  25.8636

          k = 0.7000-0.3000 0.9000 (  2528 PWs)   bands (ev):

   -91.2922 -51.6838 -51.6835 -51.6835   6.1950   7.0175   7.5341   7.7094
     7.8176   8.3649   8.7957   9.5763   9.6056   9.7146  10.0725  10.2104
    10.5709  10.9402  11.1078  11.3840  12.8630  14.3516  15.2716  19.8676
    21.3783  22.9781  25.2141  26.1521

          k = 0.6000-0.2000 0.8000 (  2537 PWs)   bands (ev):

   -91.2923 -51.6839 -51.6836 -51.6835   6.5750   7.0738   7.5856   7.6604
     7.8193   8.4356   8.9753   9.3193   9.6429   9.7742  10.0096  10.1076
    10.5071  11.0480  11.2916  11.4604  11.8134  14.0252  15.0652  19.9804
    22.4214  23.2140  24.9965  25.6035

          k = 0.5000-0.1000 0.7000 (  2543 PWs)   bands (ev):

   -91.2923 -51.6839 -51.6836 -51.6836   6.4327   7.1586   7.6068   7.6704
     7.7950   8.3305   9.0775   9.2846   9.5929   9.7835  10.0170  10.0690
    10.5072  10.9648  11.1766  11.4277  12.2604  13.7570  15.6005  20.2337
    22.0710  23.5940  24.8223  25.1706

          k = 0.4000 0.0000 0.6000 (  2535 PWs)   bands (ev):

   -91.2923 -51.6838 -51.6836 -51.6835   5.9102   7.1987   7.6218   7.6871
     7.7866   8.1564   8.9673   9.3601   9.6152   9.7201  10.0703  10.1038
    10.5780  10.9359  10.9797  11.3972  13.4075  14.0473  16.4891  20.5927
    21.4974  22.4725  24.1759  25.6050

          k = 0.8000-0.2000 1.0000 (  2531 PWs)   bands (ev):

   -91.2922 -51.6838 -51.6836 -51.6835   6.6095   6.8382   7.3872   7.7535
     7.8556   8.5470   8.6199   9.5086   9.7174   9.8076  10.1383  10.3546
    10.5769  11.0884  11.1793  11.4519  12.9055  13.7288  14.1563  19.5302
    19.9181  24.8271  26.6733  27.7789

          k = 0.7000-0.1000 0.9000 (  2537 PWs)   bands (ev):

   -91.2923 -51.6839 -51.6836 -51.6835   6.7903   7.0899   7.4280   7.6419
     7.8573   8.6906   8.7598   9.2400   9.7450   9.9054  10.0824  10.2614
    10.4476  11.2061  11.4252  11.7131  12.0088  12.9985  13.9891  19.7711
    21.2500  24.1912  25.9310  26.8805

          k = 0.6000 0.0000 0.8000 (  2544 PWs)   bands (ev):

   -91.2923 -51.6840 -51.6837 -51.6836   6.7320   7.1790   7.5283   7.6016
     7.8158   8.5940   8.9909   9.1725   9.7798   9.8625  10.0611  10.1368
    10.4087  11.1238  11.3553  11.4977  12.3156  12.5711  14.6276  19.9819
    23.1199  23.4093  24.3094  26.0471

          k =-0.2000-1.0000 0.0000 (  2530 PWs)   bands (ev):

   -91.2922 -51.6840 -51.6835 -51.6835   6.7348   7.2982   7.4516   7.5703
     7.8800   8.3642   9.0650   9.0976   9.7163   9.8869  10.1376  10.3650
    10.5449  11.3334  11.4879  11.8876  11.9790  13.1357  13.2947  19.4808
    19.8586  25.8751  26.9927  28.0432

          k = 0.6000-0.2000 1.0000 (  2525 PWs)   bands (ev):

   -91.2922 -51.6838 -51.6835 -51.6835   6.6943   6.9702   7.5237   7.6450
     7.8670   8.5235   8.9066   9.3591   9.7236   9.7429  10.0720  10.1813
    10.4291  11.1201  11.2733  11.5038  12.4953  13.1287  14.4122  21.1977
    21.4332  22.5415  25.4201  26.3041

          k = 0.5000-0.1000 0.9000 (  2536 PWs)   bands (ev):

   -91.2922 -51.6839 -51.6836 -51.6835   6.8604   7.0123   7.5239   7.6030
     7.8914   8.6080   9.0438   9.1850   9.7467   9.8090  10.0579  10.1254
    10.3869  11.1827  11.4641  11.6955  11.9027  12.9753  13.9456  21.3406
    22.0090  23.4386  23.4684  26.7541

          k =-0.4000-1.0000 0.0000 (  2544 PWs)   bands (ev):

   -91.2923 -51.6840 -51.6836 -51.6836   6.8758   7.1163   7.4578   7.5782
     7.9174   8.7909   8.8687   9.1450   9.7186  10.0112  10.0392  10.1033
    10.3945  11.2423  11.5685  11.7500  12.2403  12.6803  13.2123  21.1283
    21.6307  23.3422  24.1641  27.6558

     the Fermi energy is    11.4277 ev

!    total energy              =   -1389.46077883 Ry

     total all-electron energy =    -43178.960560 Ry
     estimated scf accuracy    <       0.00000006 Ry
     smearing contrib. (-TS)   =      -0.00497391 Ry
     internal energy E=F+TS    =   -1389.45580491 Ry

     The total energy is F=E-TS. E is the sum of the following terms:
     one-electron contribution =    -291.41037044 Ry
     hartree contribution      =     181.82779734 Ry
     xc contribution           =    -102.72774937 Ry
     ewald contribution        =    -311.50522162 Ry
     one-center paw contrib.   =    -865.64026082 Ry

     convergence has been achieved in  19 iterations

     Writing output data file ././cunipt.save/

     init_run     :      3.35s CPU      3.41s WALL (       1 calls)
     electrons    :    145.01s CPU    146.83s WALL (       1 calls)

     Called by init_run:
     wfcinit      :      2.24s CPU      2.25s WALL (       1 calls)
     potinit      :      0.35s CPU      0.36s WALL (       1 calls)
     hinit0       :      0.68s CPU      0.68s WALL (       1 calls)

     Called by electrons:
     c_bands      :    118.75s CPU    118.92s WALL (      19 calls)
     sum_band     :     18.70s CPU     19.60s WALL (      19 calls)
     v_of_rho     :      0.38s CPU      0.39s WALL (      20 calls)
     newd         :      1.08s CPU      1.84s WALL (      20 calls)
     PAW_pot      :      6.42s CPU      6.44s WALL (      20 calls)
     mix_rho      :      0.06s CPU      0.06s WALL (      19 calls)

     Called by c_bands:
     init_us_2    :      1.40s CPU      1.40s WALL (    1833 calls)
     cegterg      :    113.78s CPU    113.94s WALL (     893 calls)

     Called by *egterg:
     cdiaghg      :      2.11s CPU      2.12s WALL (    2979 calls)
     h_psi        :     68.83s CPU     68.97s WALL (    3026 calls)
     s_psi        :     10.10s CPU     10.11s WALL (    3026 calls)
     g_psi        :      0.38s CPU      0.38s WALL (    2086 calls)

     Called by h_psi:
     h_psi:calbec :      9.33s CPU      9.34s WALL (    3026 calls)
     vloc_psi     :     49.07s CPU     49.19s WALL (    3026 calls)
     add_vuspsi   :     10.18s CPU     10.19s WALL (    3026 calls)

     General routines
     calbec       :     13.28s CPU     13.30s WALL (    3919 calls)
     fft          :      0.18s CPU      0.18s WALL (     220 calls)
     ffts         :      0.01s CPU      0.01s WALL (      19 calls)
     fftw         :     53.80s CPU     53.93s WALL (  141634 calls)

     Parallel routines

     PWSCF        :   2m28.59s CPU   2m30.50s WALL


   This run was terminated on:  20:44: 8  13Sep2024            

=------------------------------------------------------------------------------=
   JOB DONE.
=------------------------------------------------------------------------------=
