
     Program PWSCF v.6.7MaX starts on 13Sep2024 at 20:30:53 

     This program is part of the open-source Quantum ESPRESSO suite
     for quantum simulation of materials; please cite
         "P. Giannozzi et al., J. Phys.:Condens. Matter 21 395502 (2009);
         "P. Giannozzi et al., J. Phys.:Condens. Matter 29 465901 (2017);
          URL http://www.quantum-espresso.org", 
     in publications or presentations arising from this work. More details at
     http://www.quantum-espresso.org/quote

     Parallel version (MPI), running on     1 processors

     MPI processes distributed on     1 nodes
     Waiting for input...
     Reading input from standard input

     Current dimensions of program PWSCF are:
     Max number of different atomic species (ntypx) = 10
     Max number of k-points (npk) =  40000
     Max angular momentum in pseudopotentials (lmaxx) =  3
     file Cu.upf: wavefunction(s)  4S 3D renormalized
     file Ni.upf: wavefunction(s)  3P 3D renormalized
     file Pt.upf: wavefunction(s)  6S 5D renormalized

     Subspace diagonalization in iterative solution of the eigenvalue problem:
     a serial algorithm will be used


     G-vector sticks info
     --------------------
     sticks:   dense  smooth     PW     G-vecs:    dense   smooth      PW
     Sum         871     871    265                17153    17153    2837



     bravais-lattice index     =            2
     lattice parameter (alat)  =      10.3000  a.u.
     unit-cell volume          =     273.1818 (a.u.)^3
     number of atoms/cell      =            3
     number of atomic types    =            3
     number of electrons       =        39.00
     number of Kohn-Sham states=           28
     kinetic-energy cutoff     =      60.0000  Ry
     charge density cutoff     =     240.0000  Ry
     scf convergence threshold =      1.0E-07
     mixing beta               =       0.7000
     number of iterations used =            8  plain     mixing
     Exchange-correlation= SLA  PW   PBX  PBC
                           (   1   4   3   4   0   0   0)

     celldm(1)=  10.300000  celldm(2)=   0.000000  celldm(3)=   0.000000
     celldm(4)=   0.000000  celldm(5)=   0.000000  celldm(6)=   0.000000

     crystal axes: (cart. coord. in units of alat)
               a(1) = (  -0.500000   0.000000   0.500000 )  
               a(2) = (   0.000000   0.500000   0.500000 )  
               a(3) = (  -0.500000   0.500000   0.000000 )  

     reciprocal axes: (cart. coord. in units 2 pi/alat)
               b(1) = ( -1.000000 -1.000000  1.000000 )  
               b(2) = (  1.000000  1.000000  1.000000 )  
               b(3) = ( -1.000000  1.000000 -1.000000 )  


     PseudoPot. # 1 for Cu read from file:
     ././Cu.upf
     MD5 check sum: cfffd1f38ee05704b3e17f46f1730a6f
     Pseudo is Projector augmented-wave + core cor, Zval = 11.0
     Generated using &quot;atomic&quot; code by A. Dal Corso  v.6.3
     Shape of augmentation charge: PSQ
     Using radial grid of 1199 points,  6 beta functions with: 
                l(1) =   0
                l(2) =   0
                l(3) =   1
                l(4) =   1
                l(5) =   2
                l(6) =   2
     Q(r) pseudized with 0 coefficients 


     PseudoPot. # 2 for Ni read from file:
     ././Ni.upf
     MD5 check sum: 6e86b733589c3ad8389697b807d86aa7
     Pseudo is Projector augmented-wave + core cor, Zval = 18.0
     Generated using &quot;atomic&quot; code by A. Dal Corso  v.6.3
     Shape of augmentation charge: PSQ
     Using radial grid of 1195 points,  6 beta functions with: 
                l(1) =   0
                l(2) =   0
                l(3) =   1
                l(4) =   1
                l(5) =   2
                l(6) =   2
     Q(r) pseudized with 0 coefficients 


     PseudoPot. # 3 for Pt read from file:
     ././Pt.upf
     MD5 check sum: c5224e9cd7a5e36e81f2def9f50bb494
     Pseudo is Projector augmented-wave + core cor, Zval = 10.0
     Generated using &quot;atomic&quot; code by A. Dal Corso  v.6.3
     Shape of augmentation charge: PSQ
     Using radial grid of 1277 points,  6 beta functions with: 
                l(1) =   0
                l(2) =   0
                l(3) =   1
                l(4) =   1
                l(5) =   2
                l(6) =   2
     Q(r) pseudized with 0 coefficients 


     atomic species   valence    mass     pseudopotential
        Cu            11.00    63.54600     Cu( 1.00)
        Ni            18.00    58.69300     Ni( 1.00)
        Pt            10.00   195.08000     Pt( 1.00)

     24 Sym. Ops. (no inversion) found



   Cartesian axes

     site n.     atom                  positions (alat units)
         1           Cu  tau(   1) = (   0.0000000   0.0000000   0.0000000  )
         2           Ni  tau(   2) = (   0.5000000   0.5000000   0.5000000  )
         3           Pt  tau(   3) = (   0.2500000   0.2500000   0.2500000  )

     number of k points=    47  Gaussian smearing, width (Ry)=  0.0100
                       cart. coord. in units 2pi/alat
        k(    1) = (   0.0000000   0.0000000   0.0000000), wk =   0.0020000
        k(    2) = (  -0.1000000   0.1000000  -0.1000000), wk =   0.0160000
        k(    3) = (  -0.2000000   0.2000000  -0.2000000), wk =   0.0160000
        k(    4) = (  -0.3000000   0.3000000  -0.3000000), wk =   0.0160000
        k(    5) = (  -0.4000000   0.4000000  -0.4000000), wk =   0.0160000
        k(    6) = (   0.5000000  -0.5000000   0.5000000), wk =   0.0080000
        k(    7) = (   0.0000000   0.2000000   0.0000000), wk =   0.0120000
        k(    8) = (  -0.1000000   0.3000000  -0.1000000), wk =   0.0480000
        k(    9) = (  -0.2000000   0.4000000  -0.2000000), wk =   0.0480000
        k(   10) = (  -0.3000000   0.5000000  -0.3000000), wk =   0.0480000
        k(   11) = (   0.6000000  -0.4000000   0.6000000), wk =   0.0480000
        k(   12) = (   0.5000000  -0.3000000   0.5000000), wk =   0.0480000
        k(   13) = (   0.4000000  -0.2000000   0.4000000), wk =   0.0480000
        k(   14) = (   0.3000000  -0.1000000   0.3000000), wk =   0.0480000
        k(   15) = (   0.2000000   0.0000000   0.2000000), wk =   0.0240000
        k(   16) = (   0.0000000   0.4000000   0.0000000), wk =   0.0120000
        k(   17) = (  -0.1000000   0.5000000  -0.1000000), wk =   0.0480000
        k(   18) = (  -0.2000000   0.6000000  -0.2000000), wk =   0.0480000
        k(   19) = (   0.7000000  -0.3000000   0.7000000), wk =   0.0480000
        k(   20) = (   0.6000000  -0.2000000   0.6000000), wk =   0.0480000
        k(   21) = (   0.5000000  -0.1000000   0.5000000), wk =   0.0480000
        k(   22) = (   0.4000000   0.0000000   0.4000000), wk =   0.0240000
        k(   23) = (   0.0000000   0.6000000   0.0000000), wk =   0.0120000
        k(   24) = (  -0.1000000   0.7000000  -0.1000000), wk =   0.0480000
        k(   25) = (   0.8000000  -0.2000000   0.8000000), wk =   0.0480000
        k(   26) = (   0.7000000  -0.1000000   0.7000000), wk =   0.0480000
        k(   27) = (   0.6000000  -0.0000000   0.6000000), wk =   0.0240000
        k(   28) = (   0.0000000   0.8000000   0.0000000), wk =   0.0120000
        k(   29) = (   0.9000000  -0.1000000   0.9000000), wk =   0.0480000
        k(   30) = (   0.8000000   0.0000000   0.8000000), wk =   0.0240000
        k(   31) = (   0.0000000  -1.0000000   0.0000000), wk =   0.0060000
        k(   32) = (  -0.2000000   0.4000000   0.0000000), wk =   0.0480000
        k(   33) = (  -0.3000000   0.5000000  -0.1000000), wk =   0.0960000
        k(   34) = (   0.6000000  -0.4000000   0.8000000), wk =   0.0960000
        k(   35) = (   0.5000000  -0.3000000   0.7000000), wk =   0.0480000
        k(   36) = (  -0.2000000   0.6000000   0.0000000), wk =   0.0480000
        k(   37) = (   0.7000000  -0.3000000   0.9000000), wk =   0.0960000
        k(   38) = (   0.6000000  -0.2000000   0.8000000), wk =   0.0960000
        k(   39) = (   0.5000000  -0.1000000   0.7000000), wk =   0.0960000
        k(   40) = (   0.4000000   0.0000000   0.6000000), wk =   0.0480000
        k(   41) = (   0.8000000  -0.2000000   1.0000000), wk =   0.0480000
        k(   42) = (   0.7000000  -0.1000000   0.9000000), wk =   0.0960000
        k(   43) = (   0.6000000   0.0000000   0.8000000), wk =   0.0480000
        k(   44) = (  -0.2000000  -1.0000000   0.0000000), wk =   0.0240000
        k(   45) = (   0.6000000  -0.2000000   1.0000000), wk =   0.0480000
        k(   46) = (   0.5000000  -0.1000000   0.9000000), wk =   0.0480000
        k(   47) = (  -0.4000000  -1.0000000   0.0000000), wk =   0.0240000

     Dense  grid:    17153 G-vectors     FFT dimensions: (  36,  36,  36)

     Estimated max dynamical RAM per process >     109.79 MB

     Check: negative core charge=   -0.000002

     Initial potential from superposition of free atoms

     starting charge   38.99935, renormalised to   39.00000
     Starting wfcs are   28 randomized atomic wfcs
     Checking if some PAW data can be deallocated... 

     total cpu time spent up to now is        3.1 secs

     Self-consistent Calculation

     iteration #  1     ecut=    60.00 Ry     beta= 0.70
     Davidson diagonalization with overlap
     ethr =  1.00E-02,  avg # of iterations =  6.1

     total cpu time spent up to now is       10.8 secs

     total energy              =   -1388.06762422 Ry
     estimated scf accuracy    <       1.73205769 Ry

     iteration #  2     ecut=    60.00 Ry     beta= 0.70
     Davidson diagonalization with overlap
     ethr =  4.44E-03,  avg # of iterations =  3.2

     total cpu time spent up to now is       18.7 secs

     total energy              =   -1385.98093363 Ry
     estimated scf accuracy    <      45.91229235 Ry

     iteration #  3     ecut=    60.00 Ry     beta= 0.70
     Davidson diagonalization with overlap
     ethr =  4.44E-03,  avg # of iterations =  3.9

     total cpu time spent up to now is       26.0 secs

     total energy              =   -1389.35389909 Ry
     estimated scf accuracy    <       0.59335113 Ry

     iteration #  4     ecut=    60.00 Ry     beta= 0.70
     Davidson diagonalization with overlap
     ethr =  1.52E-03,  avg # of iterations =  2.0

     total cpu time spent up to now is       31.6 secs

     total energy              =   -1389.40473571 Ry
     estimated scf accuracy    <       0.07502713 Ry

     iteration #  5     ecut=    60.00 Ry     beta= 0.70
     Davidson diagonalization with overlap
     ethr =  1.92E-04,  avg # of iterations =  2.2

     total cpu time spent up to now is       37.4 secs

     total energy              =   -1389.40425258 Ry
     estimated scf accuracy    <       0.02437202 Ry

     iteration #  6     ecut=    60.00 Ry     beta= 0.70
     Davidson diagonalization with overlap
     ethr =  6.25E-05,  avg # of iterations =  2.7

     total cpu time spent up to now is       43.9 secs

     total energy              =   -1389.40844369 Ry
     estimated scf accuracy    <       0.02404064 Ry

     iteration #  7     ecut=    60.00 Ry     beta= 0.70
     Davidson diagonalization with overlap
     ethr =  6.16E-05,  avg # of iterations =  1.0

     total cpu time spent up to now is       49.1 secs

     total energy              =   -1389.41113571 Ry
     estimated scf accuracy    <       0.00161580 Ry

     iteration #  8     ecut=    60.00 Ry     beta= 0.70
     Davidson diagonalization with overlap
     ethr =  4.14E-06,  avg # of iterations =  4.9

     total cpu time spent up to now is       55.4 secs

     total energy              =   -1389.41140658 Ry
     estimated scf accuracy    <       0.00012485 Ry

     iteration #  9     ecut=    60.00 Ry     beta= 0.70
     Davidson diagonalization with overlap
     c_bands:  1 eigenvalues not converged
     ethr =  3.20E-07,  avg # of iterations =  4.8

     total cpu time spent up to now is       63.5 secs

     total energy              =   -1389.41146195 Ry
     estimated scf accuracy    <       0.00000832 Ry

     iteration # 10     ecut=    60.00 Ry     beta= 0.70
     Davidson diagonalization with overlap
     ethr =  2.13E-08,  avg # of iterations =  2.8

     total cpu time spent up to now is       69.9 secs

     total energy              =   -1389.41146320 Ry
     estimated scf accuracy    <       0.00000185 Ry

     iteration # 11     ecut=    60.00 Ry     beta= 0.70
     Davidson diagonalization with overlap
     ethr =  4.74E-09,  avg # of iterations =  2.7

     total cpu time spent up to now is       76.4 secs

     total energy              =   -1389.41146340 Ry
     estimated scf accuracy    <       0.00000091 Ry

     iteration # 12     ecut=    60.00 Ry     beta= 0.70
     Davidson diagonalization with overlap
     ethr =  2.34E-09,  avg # of iterations =  1.2

     total cpu time spent up to now is       81.6 secs

     total energy              =   -1389.41146334 Ry
     estimated scf accuracy    <       0.00000034 Ry

     iteration # 13     ecut=    60.00 Ry     beta= 0.70
     Davidson diagonalization with overlap
     ethr =  8.64E-10,  avg # of iterations =  1.7

     total cpu time spent up to now is       87.1 secs

     End of self-consistent calculation

          k = 0.0000 0.0000 0.0000 (  2109 PWs)   bands (ev):

   -88.3633 -48.7652 -48.7652 -48.7652   5.6499   9.6425   9.6425   9.9999
     9.9999   9.9999  11.5215  11.5215  11.5215  13.3835  13.3835  13.7332
    13.7332  13.7332  14.4557  14.4557  24.7771  25.4442  25.4442  25.4442
    25.5941  25.5941  25.5942  26.1964

          k =-0.1000 0.1000-0.1000 (  2124 PWs)   bands (ev):

   -88.3635 -48.7654 -48.7651 -48.7651   5.8222   9.6805   9.6805   9.9584
     9.9958   9.9958  11.5429  11.5640  11.5640  13.3449  13.3449  13.5890
    13.7271  13.7271  14.4468  14.4468  22.7051  24.4231  24.4231  24.7690
    25.9092  26.2222  26.2222  26.8998

          k =-0.2000 0.2000-0.2000 (  2127 PWs)   bands (ev):

   -88.3635 -48.7653 -48.7651 -48.7651   6.3183   9.7620   9.7620   9.8832
    10.0140  10.0140  11.5421  11.6784  11.6784  13.1931  13.1931  13.2508
    13.7382  13.7382  14.4416  14.4416  20.0469  23.3441  23.3441  24.3614
    26.0923  26.0923  26.2763  27.7143

          k =-0.3000 0.3000-0.3000 (  2145 PWs)   bands (ev):

   -88.3636 -48.7655 -48.7651 -48.7651   7.0564   9.7918   9.7918   9.8682
    10.1361  10.1361  11.3742  11.8292  11.8292  12.9207  12.9207  12.9454
    13.7928  13.7928  14.4597  14.4597  17.7268  22.4011  22.4011  23.9520
    25.8960  25.8960  26.5385  29.2215

          k =-0.4000 0.4000-0.4000 (  2144 PWs)   bands (ev):

   -88.3636 -48.7655 -48.7650 -48.7650   7.8240   9.7764   9.7764   9.9973
    10.3091  10.3091  10.9860  11.9737  11.9737  12.6250  12.6250  12.8206
    13.8596  13.8596  14.4870  14.4870  16.0084  21.7450  21.7450  23.6922
    25.7626  25.7626  26.6204  30.7315

          k = 0.5000-0.5000 0.5000 (  2138 PWs)   bands (ev):

   -88.3635 -48.7655 -48.7649 -48.7649   8.1829   9.7669   9.7669  10.2201
    10.3913  10.3913  10.6365  12.0506  12.0506  12.4757  12.4757  12.8046
    13.8895  13.8895  14.4999  14.4999  15.3320  21.5080  21.5080  23.6051
    25.7167  25.7167  26.6362  31.4431

          k = 0.0000 0.2000 0.0000 (  2133 PWs)   bands (ev):

   -88.3636 -48.7655 -48.7652 -48.7652   5.8805   9.6427   9.7425   9.9019
    10.0111  10.0111  11.4266  11.6486  11.6486  13.3188  13.3555  13.6655
    13.6655  13.6744  14.3662  14.5002  23.2281  23.2281  24.1647  24.2131
    25.1371  26.6407  26.6407  26.7189

          k =-0.1000 0.3000-0.1000 (  2134 PWs)   bands (ev):

   -88.3636 -48.7654 -48.7651 -48.7651   6.2719   9.6610   9.8061   9.8509
    10.0137  10.0393  11.3931  11.7680  11.8012  13.2208  13.2378  13.3975
    13.6476  13.7320  14.2951  14.5198  20.8541  22.1636  23.4512  24.1778
    25.1462  26.5480  26.9404  27.3613

          k =-0.2000 0.4000-0.2000 (  2136 PWs)   bands (ev):

   -88.3635 -48.7655 -48.7650 -48.7650   6.9386   9.6442   9.8127   9.8791
    10.0380  10.1801  11.4165  11.8234  11.9762  12.9402  13.0209  13.0904
    13.7305  13.7796  14.2872  14.5322  18.4197  21.3330  22.3682  23.7632
    26.3348  26.7095  26.9445  27.4914

          k =-0.3000 0.5000-0.3000 (  2132 PWs)   bands (ev):

   -88.3634 -48.7655 -48.7649 -48.7648   7.7225   9.6100   9.8467   9.9093
    10.1332  10.3675  11.3252  11.8625  12.1183  12.5942  12.7815  12.9020
    13.8175  13.8387  14.3628  14.5306  16.4554  20.8609  21.3386  23.5495
    26.4018  26.7073  27.4322  28.4401

          k = 0.6000-0.4000 0.6000 (  2139 PWs)   bands (ev):

   -88.3635 -48.7655 -48.7649 -48.7649   8.2576   9.6219   9.8140  10.0546
    10.2150  10.4557  11.1257  11.9933  12.1016  12.4571  12.5814  12.8300
    13.8369  13.9078  14.4813  14.4849  15.3584  20.6036  20.8682  23.4931
    26.3922  26.4097  27.4858  30.3207

          k = 0.5000-0.3000 0.5000 (  2137 PWs)   bands (ev):

   -88.3635 -48.7655 -48.7649 -48.7649   8.1303   9.6649   9.8003  10.0243
    10.2326  10.3595  11.2009  11.9360  12.1214  12.4890  12.6230  12.8305
    13.8094  13.9187  14.3828  14.5568  15.6139  20.3068  21.3992  23.5972
    26.1066  26.3389  27.6998  30.7491

          k = 0.4000-0.2000 0.4000 (  2140 PWs)   bands (ev):

   -88.3635 -48.7655 -48.7650 -48.7649   7.4570   9.7076   9.8040   9.8990
    10.1516  10.1953  11.4431  11.7839  12.0560  12.6949  12.8840  12.9068
    13.7763  13.8468  14.2986  14.5655  17.0661  20.4839  22.3837  23.8802
    25.9124  26.2086  27.8823  29.0073

          k = 0.3000-0.1000 0.3000 (  2135 PWs)   bands (ev):

   -88.3635 -48.7654 -48.7651 -48.7650   6.6871   9.7657   9.7836   9.8559
     9.9921  10.0949  11.5523  11.6517  11.9090  13.0283  13.1208  13.1257
    13.7283  13.7616  14.2962  14.5370  19.2172  21.0485  23.6812  24.3712
    25.8464  25.9562  27.3701  27.4584

          k = 0.2000 0.0000 0.2000 (  2135 PWs)   bands (ev):

   -88.3636 -48.7654 -48.7652 -48.7651   6.1037   9.7061   9.7615   9.8847
     9.9733  10.0311  11.5343  11.5681  11.7384  13.2609  13.2767  13.4313
    13.6655  13.7567  14.3601  14.4993  21.6381  21.9670  25.0270  25.0384
    25.4391  25.7942  26.2900  26.7742

          k = 0.0000 0.4000 0.0000 (  2137 PWs)   bands (ev):

   -88.3636 -48.7654 -48.7650 -48.7650   6.5563   9.5422   9.6828  10.0343
    10.0462  10.0462  11.2462  11.9937  11.9937  13.1765  13.2450  13.5300
    13.5300  13.5986  14.1379  14.5428  21.0115  21.0115  21.8404  23.6170
    23.9528  27.7180  27.7180  28.7012

          k =-0.1000 0.5000-0.1000 (  2132 PWs)   bands (ev):

   -88.3635 -48.7655 -48.7649 -48.7649   7.1323   9.4080   9.6492  10.0219
    10.0639  10.2799  11.2339  12.1510  12.1938  12.9853  13.0838  13.2835
    13.6075  13.7081  14.0687  14.5475  18.9978  20.0912  20.8249  23.5420
    24.4630  28.0277  28.2138  29.4839

          k =-0.2000 0.6000-0.2000 (  2133 PWs)   bands (ev):

   -88.3634 -48.7656 -48.7649 -48.7648   7.8790   9.3113   9.6965   9.9763
    10.0981  10.5242  11.3278  12.1815  12.3512  12.5628  12.8999  13.0969
    13.7046  13.8236  14.2019  14.5436  16.9063  19.5580  19.8061  23.4576
    25.9325  27.9653  28.1985  29.6002

          k = 0.7000-0.3000 0.7000 (  2145 PWs)   bands (ev):

   -88.3635 -48.7657 -48.7649 -48.7647   8.4890   9.3204   9.7837   9.9241
    10.1594  10.6607  11.4679  12.1464  12.1698  12.4811  12.7531  12.9653
    13.6889  13.9446  14.4525  14.5118  15.4403  18.9343  19.5654  23.4560
    27.5397  27.8356  27.8640  29.8639

          k = 0.6000-0.2000 0.6000 (  2151 PWs)   bands (ev):

   -88.3636 -48.7657 -48.7649 -48.7648   8.5319   9.4647   9.8790   9.8840
    10.1367  10.5627  11.6325  11.9398  12.1793  12.6117  12.6254  12.8849
    13.6634  13.9566  14.3588  14.6045  15.3229  18.4042  20.1666  23.5615
    27.3645  27.3856  29.0263  30.7277

          k = 0.5000-0.1000 0.5000 (  2143 PWs)   bands (ev):

   -88.3635 -48.7656 -48.7649 -48.7648   8.0394   9.5667   9.8652   9.8787
    10.1249  10.2971  11.7196  11.8118  12.2902  12.4888  12.8183  12.8982
    13.6757  13.9523  14.1349  14.6352  16.5318  18.3621  21.2399  23.7810
    26.9828  27.0544  28.4743  29.2549

          k = 0.4000 0.0000 0.4000 (  2133 PWs)   bands (ev):

   -88.3635 -48.7655 -48.7650 -48.7649   7.3163   9.6538   9.8499   9.8668
    10.0596  10.1363  11.6671  11.7086  12.1344  12.7347  12.9865  13.0034
    13.7241  13.8367  14.1429  14.6001  18.2494  18.9877  22.5602  24.0997
    26.5642  26.5807  27.4809  27.8214

          k = 0.0000 0.6000 0.0000 (  2133 PWs)   bands (ev):

   -88.3635 -48.7657 -48.7648 -48.7648   7.6149   9.1966   9.5255  10.0991
    10.0991  10.4927  11.1092  12.3800  12.3800  12.9621  13.0914  13.5261
    13.5720  13.5720  13.9027  14.5561  19.0105  19.0105  19.0658  23.2416
    23.7112  29.3742  29.3742  31.1525

          k =-0.1000 0.7000-0.1000 (  2134 PWs)   bands (ev):

   -88.3634 -48.7657 -48.7647 -48.7647   8.2913   9.0561   9.4894  10.0929
    10.1222  10.7722  11.1037  12.4444  12.4556  12.6550  13.0326  13.3712
    13.6457  13.8428  14.0620  14.5824  17.2081  18.2965  18.3093  23.3589
    24.1803  29.7990  29.8918  31.9479

          k = 0.8000-0.2000 0.8000 (  2143 PWs)   bands (ev):

   -88.3635 -48.7659 -48.7648 -48.7647   8.8362   9.1038   9.5374  10.0425
    10.1368  10.9957  11.2338  12.1006  12.4920  12.6423  12.9130  13.2533
    13.5398  14.0774  14.4613  14.6717  15.5925  17.4151  18.1782  23.4185
    25.6661  29.5371  29.5586  31.8727

          k = 0.7000-0.1000 0.7000 (  2150 PWs)   bands (ev):

   -88.3636 -48.7659 -48.7648 -48.7647   8.8228   9.4283   9.6523   9.9783
    10.0858  10.9402  11.5309  11.8649  12.5184  12.7002  12.8145  13.0884
    13.4831  14.0149  14.5478  14.6601  15.2377  16.7461  18.7757  23.5020
    27.5811  28.8873  29.0646  30.7336

          k = 0.6000-0.0000 0.6000 (  2149 PWs)   bands (ev):

   -88.3636 -48.7657 -48.7649 -48.7648   8.5744   9.5043   9.8009   9.9199
    10.0401  10.6046  11.8023  11.8444  12.3795  12.6365  12.7481  12.9450
    13.5456  13.8779  14.2851  14.6809  16.1017  16.7837  19.8990  23.6327
    28.0624  28.3810  28.7918  30.0490

          k = 0.0000 0.8000 0.0000 (  2136 PWs)   bands (ev):

   -88.3634 -48.7659 -48.7646 -48.7646   8.8310   8.9318   9.4021  10.1491
    10.1491  10.8806  11.0676  12.4630  12.5018  12.5018  13.0836  13.4595
    13.7772  14.1307  14.1307  14.6627  16.7556  17.3259  17.3259  23.1367
    23.6340  31.5151  31.5151  33.0042

          k = 0.9000-0.1000 0.9000 (  2149 PWs)   bands (ev):

   -88.3636 -48.7661 -48.7647 -48.7646   8.8217   9.2623   9.5959  10.1299
    10.1340  10.8051  11.3603  12.0151  12.5211  12.6202  13.0464  13.4129
    13.6235  14.4504  14.5631  14.8906  15.7280  16.4798  16.9853  23.3275
    24.0883  31.4156  31.8154  33.5751

          k = 0.8000 0.0000 0.8000 (  2147 PWs)   bands (ev):

   -88.3635 -48.7660 -48.7648 -48.7646   8.8434   9.4248   9.6590  10.0577
    10.0672  11.1317  11.4148  11.6945  12.5933  12.7405  12.9465  13.3313
    13.4457  14.4742  14.7048  14.7907  15.4662  15.7363  17.5783  23.4270
    25.5983  30.2989  31.0648  31.5229

          k = 0.0000-1.0000 0.0000 (  2164 PWs)   bands (ev):

   -88.3637 -48.7662 -48.7647 -48.7647   8.7667   9.2286  10.0535  10.1699
    10.1699  10.3269  11.5347  12.0105  12.4944  12.4944  13.0913  13.4325
    13.7433  14.7013  14.7013  14.9949  15.5291  16.4172  16.4172  23.1275
    23.6146  32.9265  33.5794  33.5794

          k =-0.2000 0.4000 0.0000 (  2140 PWs)   bands (ev):

   -88.3636 -48.7655 -48.7651 -48.7650   6.7538   9.6001   9.7482   9.9369
    10.0132  10.1327  11.3688  11.8867  12.0143  13.0457  13.1243  13.2287
    13.6714  13.7334  14.1933  14.5476  19.7637  20.2698  22.5444  24.4725
    24.8227  26.7353  27.4166  28.6074

          k =-0.3000 0.5000-0.1000 (  2141 PWs)   bands (ev):

   -88.3635 -48.7656 -48.7650 -48.7649   7.4641   9.5057   9.7973   9.9311
    10.0460  10.3011  11.4436  11.9538  12.1976  12.7038  12.9539  13.0319
    13.7168  13.8301  14.1631  14.5736  17.6764  19.4631  21.4220  24.2073
    25.8811  26.8192  27.7028  29.2408

          k = 0.6000-0.4000 0.8000 (  2145 PWs)   bands (ev):

   -88.3636 -48.7656 -48.7649 -48.7649   8.1827   9.4566   9.8514   9.9131
    10.1263  10.4727  11.5121  11.9531  12.2597  12.4480  12.7672  12.9101
    13.7060  13.9492  14.2795  14.5811  15.9383  19.1721  20.4364  23.9745
    26.1910  27.7048  28.2228  29.4086

          k = 0.5000-0.3000 0.7000 (  2154 PWs)   bands (ev):

   -88.3636 -48.7657 -48.7649 -48.7649   8.5041   9.4490   9.8539   9.9357
    10.1834  10.5529  11.5156  11.9839  12.1174  12.5000  12.6627  12.8632
    13.6966  14.0113  14.3990  14.5597  15.1960  19.1904  19.9517  23.8973
    26.1900  27.9391  28.6517  30.5495

          k =-0.2000 0.6000 0.0000 (  2144 PWs)   bands (ev):

   -88.3636 -48.7656 -48.7649 -48.7649   7.7579   9.2511   9.6148  10.0341
    10.0881  10.5055  11.2436  12.2915  12.3772  12.7104  13.0204  13.2043
    13.6475  13.7892  14.0485  14.5618  17.9571  18.5780  19.8147  24.0414
    24.4221  27.9874  29.1904  30.9638

          k = 0.7000-0.3000 0.9000 (  2142 PWs)   bands (ev):

   -88.3635 -48.7657 -48.7648 -48.7647   8.4525   9.1712   9.6411  10.0047
    10.1263  10.7261  11.3635  12.3066  12.3564  12.4883  12.9092  13.1094
    13.5708  14.0130  14.2439  14.6043  16.2850  17.9473  18.9135  24.1410
    25.7624  27.5942  29.6726  31.1598

          k = 0.6000-0.2000 0.8000 (  2153 PWs)   bands (ev):

   -88.3636 -48.7658 -48.7649 -48.7647   8.8108   9.2485   9.7004   9.9750
    10.1616  10.8169  11.5853  11.9841  12.3683  12.5387  12.8539  12.9881
    13.5066  14.1540  14.4676  14.6771  15.1230  17.6288  18.6098  24.2095
    27.0153  27.7783  29.5399  30.2949

          k = 0.5000-0.1000 0.7000 (  2155 PWs)   bands (ev):

   -88.3636 -48.7658 -48.7649 -48.7648   8.6612   9.3498   9.7667   9.9704
    10.1028  10.6766  11.7120  11.9482  12.3225  12.5402  12.8480  12.9250
    13.5178  14.0615  14.3084  14.6720  15.6235  17.3297  19.2512  24.4014
    26.7049  28.1717  29.3703  29.8003

          k = 0.4000 0.0000 0.6000 (  2136 PWs)   bands (ev):

   -88.3635 -48.7655 -48.7649 -48.7648   8.1320   9.3967   9.7967   9.9682
    10.0501  10.4550  11.5717  12.0506  12.3717  12.4704  12.8958  12.9490
    13.6113  14.0171  14.0776  14.6309  16.9043  17.6971  20.3004  24.6416
    26.0912  27.0461  28.6749  30.2493

          k = 0.8000-0.2000 1.0000 (  2147 PWs)   bands (ev):

   -88.3636 -48.7659 -48.7647 -48.7647   8.8842   8.9776   9.4632  10.0778
    10.1607  11.0374  11.0869  12.2138  12.4958  12.6391  13.0091  13.3303
    13.5503  14.1783  14.3281  14.6901  16.3281  17.0953  17.5875  23.9042
    24.2587  29.5073  31.2879  32.5961

          k = 0.7000-0.1000 0.9000 (  2155 PWs)   bands (ev):

   -88.3636 -48.7660 -48.7648 -48.7647   8.9140   9.3392   9.5057  10.0497
    10.1701  11.2111  11.2671  11.8658  12.5109  12.7408  12.9523  13.1656
    13.4434  14.3572  14.6684  15.0070  15.2152  16.4028  17.3197  24.1390
    25.6650  28.8816  30.6443  31.6492

          k = 0.6000 0.0000 0.8000 (  2158 PWs)   bands (ev):

   -88.3637 -48.7659 -48.7649 -48.7647   8.8936   9.3846   9.6194  10.0380
    10.1076  11.0152  11.6087  11.8028  12.5416  12.6408  12.9316  13.0079
    13.4131  14.2346  14.5068  14.7614  15.6230  16.0134  18.0895  24.2933
    27.6627  28.0681  28.9158  30.7366

          k =-0.2000-1.0000 0.0000 (  2150 PWs)   bands (ev):

   -88.3636 -48.7661 -48.7647 -48.7646   8.8250   9.3280   9.7229  10.0586
    10.1908  10.8516  11.6228  11.6797  12.4840  12.7353  13.0222  13.3513
    13.5129  14.5523  14.7709  15.2202  15.3135  16.3031  16.4211  23.8872
    24.2152  30.6412  31.8427  33.0801

          k = 0.6000-0.2000 1.0000 (  2156 PWs)   bands (ev):

   -88.3636 -48.7658 -48.7649 -48.7647   8.9372   9.1195   9.6186  10.0233
    10.1692  10.9299  11.5060  12.0387  12.4802  12.4977  12.9303  13.0541
    13.4391  14.2516  14.4396  14.7564  15.8170  16.5769  17.9205  25.4914
    25.8721  27.2200  30.0731  30.9153

          k = 0.5000-0.1000 0.9000 (  2164 PWs)   bands (ev):

   -88.3637 -48.7659 -48.7650 -48.7647   9.0501   9.1703   9.6118  10.0393
    10.2034  11.0416  11.6794  11.8241  12.4927  12.5426  12.9073  13.0128
    13.4129  14.3349  14.7059  14.9720  15.1178  16.4206  17.3409  25.6161
    26.6921  27.9628  28.0733  31.4440

          k =-0.4000-1.0000 0.0000 (  2166 PWs)   bands (ev):

   -88.3637 -48.7660 -48.7650 -48.7647   9.0025   9.3049   9.5234  10.0640
    10.2329  11.2751  11.4645  11.7619  12.4603  12.7999  12.8654  13.0132
    13.4315  14.4194  14.8778  15.0006  15.5983  15.9955  16.4151  25.7994
    25.8050  28.0378  28.7656  32.5703

     the Fermi energy is    14.6512 ev

!    total energy              =   -1389.41146331 Ry

     total all-electron energy =    -43178.911245 Ry
     estimated scf accuracy    <       0.00000007 Ry
     smearing contrib. (-TS)   =      -0.00433523 Ry
     internal energy E=F+TS    =   -1389.40712808 Ry

     The total energy is F=E-TS. E is the sum of the following terms:
     one-electron contribution =    -262.46560336 Ry
     hartree contribution      =     171.51508896 Ry
     xc contribution           =    -103.09085578 Ry
     ewald contribution        =    -329.65115686 Ry
     one-center paw contrib.   =    -865.71460104 Ry

     convergence has been achieved in  13 iterations

     Writing output data file ././cunipt.save/

     init_run     :      2.81s CPU      2.87s WALL (       1 calls)
     electrons    :     82.82s CPU     84.05s WALL (       1 calls)

     Called by init_run:
     wfcinit      :      1.73s CPU      1.74s WALL (       1 calls)
     potinit      :      0.33s CPU      0.35s WALL (       1 calls)
     hinit0       :      0.67s CPU      0.67s WALL (       1 calls)

     Called by electrons:
     c_bands      :     69.22s CPU     69.49s WALL (      13 calls)
     sum_band     :      8.71s CPU      9.19s WALL (      13 calls)
     v_of_rho     :      0.17s CPU      0.17s WALL (      14 calls)
     newd         :      0.63s CPU      1.07s WALL (      14 calls)
     PAW_pot      :      4.43s CPU      4.49s WALL (      14 calls)
     mix_rho      :      0.03s CPU      0.03s WALL (      13 calls)

     Called by c_bands:
     init_us_2    :      0.81s CPU      0.82s WALL (    1269 calls)
     cegterg      :     66.38s CPU     66.64s WALL (     611 calls)

     Called by *egterg:
     cdiaghg      :      1.79s CPU      1.80s WALL (    2453 calls)
     h_psi        :     37.06s CPU     37.22s WALL (    2500 calls)
     s_psi        :      6.33s CPU      6.35s WALL (    2500 calls)
     g_psi        :      0.24s CPU      0.24s WALL (    1842 calls)

     Called by h_psi:
     h_psi:calbec :      5.84s CPU      5.86s WALL (    2500 calls)
     vloc_psi     :     24.70s CPU     24.81s WALL (    2500 calls)
     add_vuspsi   :      6.39s CPU      6.41s WALL (    2500 calls)

     General routines
     calbec       :      8.13s CPU      8.15s WALL (    3111 calls)
     fft          :      0.07s CPU      0.07s WALL (     154 calls)
     ffts         :      0.01s CPU      0.01s WALL (      13 calls)
     fftw         :     25.76s CPU     25.86s WALL (  102766 calls)

     Parallel routines

     PWSCF        :   1m25.87s CPU   1m27.18s WALL


   This run was terminated on:  20:32:20  13Sep2024            

=------------------------------------------------------------------------------=
   JOB DONE.
=------------------------------------------------------------------------------=
