
     Program PWSCF v.6.7MaX starts on 13Sep2024 at 20:52: 8 

     This program is part of the open-source Quantum ESPRESSO suite
     for quantum simulation of materials; please cite
         "P. Giannozzi et al., J. Phys.:Condens. Matter 21 395502 (2009);
         "P. Giannozzi et al., J. Phys.:Condens. Matter 29 465901 (2017);
          URL http://www.quantum-espresso.org", 
     in publications or presentations arising from this work. More details at
     http://www.quantum-espresso.org/quote

     Parallel version (MPI), running on     1 processors

     MPI processes distributed on     1 nodes
     Waiting for input...
     Reading input from standard input

     Current dimensions of program PWSCF are:
     Max number of different atomic species (ntypx) = 10
     Max number of k-points (npk) =  40000
     Max angular momentum in pseudopotentials (lmaxx) =  3
     file Cu.upf: wavefunction(s)  4S 3D renormalized
     file Ni.upf: wavefunction(s)  3P 3D renormalized
     file Pt.upf: wavefunction(s)  6S 5D renormalized

     Subspace diagonalization in iterative solution of the eigenvalue problem:
     a serial algorithm will be used


     G-vector sticks info
     --------------------
     sticks:   dense  smooth     PW     G-vecs:    dense   smooth      PW
     Sum        1027    1027    313                21595    21595    3527



     bravais-lattice index     =            2
     lattice parameter (alat)  =      11.1000  a.u.
     unit-cell volume          =     341.9077 (a.u.)^3
     number of atoms/cell      =            3
     number of atomic types    =            3
     number of electrons       =        39.00
     number of Kohn-Sham states=           28
     kinetic-energy cutoff     =      60.0000  Ry
     charge density cutoff     =     240.0000  Ry
     scf convergence threshold =      1.0E-07
     mixing beta               =       0.7000
     number of iterations used =            8  plain     mixing
     Exchange-correlation= SLA  PW   PBX  PBC
                           (   1   4   3   4   0   0   0)

     celldm(1)=  11.100000  celldm(2)=   0.000000  celldm(3)=   0.000000
     celldm(4)=   0.000000  celldm(5)=   0.000000  celldm(6)=   0.000000

     crystal axes: (cart. coord. in units of alat)
               a(1) = (  -0.500000   0.000000   0.500000 )  
               a(2) = (   0.000000   0.500000   0.500000 )  
               a(3) = (  -0.500000   0.500000   0.000000 )  

     reciprocal axes: (cart. coord. in units 2 pi/alat)
               b(1) = ( -1.000000 -1.000000  1.000000 )  
               b(2) = (  1.000000  1.000000  1.000000 )  
               b(3) = ( -1.000000  1.000000 -1.000000 )  


     PseudoPot. # 1 for Cu read from file:
     ././Cu.upf
     MD5 check sum: cfffd1f38ee05704b3e17f46f1730a6f
     Pseudo is Projector augmented-wave + core cor, Zval = 11.0
     Generated using &quot;atomic&quot; code by A. Dal Corso  v.6.3
     Shape of augmentation charge: PSQ
     Using radial grid of 1199 points,  6 beta functions with: 
                l(1) =   0
                l(2) =   0
                l(3) =   1
                l(4) =   1
                l(5) =   2
                l(6) =   2
     Q(r) pseudized with 0 coefficients 


     PseudoPot. # 2 for Ni read from file:
     ././Ni.upf
     MD5 check sum: 6e86b733589c3ad8389697b807d86aa7
     Pseudo is Projector augmented-wave + core cor, Zval = 18.0
     Generated using &quot;atomic&quot; code by A. Dal Corso  v.6.3
     Shape of augmentation charge: PSQ
     Using radial grid of 1195 points,  6 beta functions with: 
                l(1) =   0
                l(2) =   0
                l(3) =   1
                l(4) =   1
                l(5) =   2
                l(6) =   2
     Q(r) pseudized with 0 coefficients 


     PseudoPot. # 3 for Pt read from file:
     ././Pt.upf
     MD5 check sum: c5224e9cd7a5e36e81f2def9f50bb494
     Pseudo is Projector augmented-wave + core cor, Zval = 10.0
     Generated using &quot;atomic&quot; code by A. Dal Corso  v.6.3
     Shape of augmentation charge: PSQ
     Using radial grid of 1277 points,  6 beta functions with: 
                l(1) =   0
                l(2) =   0
                l(3) =   1
                l(4) =   1
                l(5) =   2
                l(6) =   2
     Q(r) pseudized with 0 coefficients 


     atomic species   valence    mass     pseudopotential
        Cu            11.00    63.54600     Cu( 1.00)
        Ni            18.00    58.69300     Ni( 1.00)
        Pt            10.00   195.08000     Pt( 1.00)

     24 Sym. Ops. (no inversion) found



   Cartesian axes

     site n.     atom                  positions (alat units)
         1           Cu  tau(   1) = (   0.0000000   0.0000000   0.0000000  )
         2           Ni  tau(   2) = (   0.5000000   0.5000000   0.5000000  )
         3           Pt  tau(   3) = (   0.2500000   0.2500000   0.2500000  )

     number of k points=    47  Gaussian smearing, width (Ry)=  0.0100
                       cart. coord. in units 2pi/alat
        k(    1) = (   0.0000000   0.0000000   0.0000000), wk =   0.0020000
        k(    2) = (  -0.1000000   0.1000000  -0.1000000), wk =   0.0160000
        k(    3) = (  -0.2000000   0.2000000  -0.2000000), wk =   0.0160000
        k(    4) = (  -0.3000000   0.3000000  -0.3000000), wk =   0.0160000
        k(    5) = (  -0.4000000   0.4000000  -0.4000000), wk =   0.0160000
        k(    6) = (   0.5000000  -0.5000000   0.5000000), wk =   0.0080000
        k(    7) = (   0.0000000   0.2000000   0.0000000), wk =   0.0120000
        k(    8) = (  -0.1000000   0.3000000  -0.1000000), wk =   0.0480000
        k(    9) = (  -0.2000000   0.4000000  -0.2000000), wk =   0.0480000
        k(   10) = (  -0.3000000   0.5000000  -0.3000000), wk =   0.0480000
        k(   11) = (   0.6000000  -0.4000000   0.6000000), wk =   0.0480000
        k(   12) = (   0.5000000  -0.3000000   0.5000000), wk =   0.0480000
        k(   13) = (   0.4000000  -0.2000000   0.4000000), wk =   0.0480000
        k(   14) = (   0.3000000  -0.1000000   0.3000000), wk =   0.0480000
        k(   15) = (   0.2000000   0.0000000   0.2000000), wk =   0.0240000
        k(   16) = (   0.0000000   0.4000000   0.0000000), wk =   0.0120000
        k(   17) = (  -0.1000000   0.5000000  -0.1000000), wk =   0.0480000
        k(   18) = (  -0.2000000   0.6000000  -0.2000000), wk =   0.0480000
        k(   19) = (   0.7000000  -0.3000000   0.7000000), wk =   0.0480000
        k(   20) = (   0.6000000  -0.2000000   0.6000000), wk =   0.0480000
        k(   21) = (   0.5000000  -0.1000000   0.5000000), wk =   0.0480000
        k(   22) = (   0.4000000   0.0000000   0.4000000), wk =   0.0240000
        k(   23) = (   0.0000000   0.6000000   0.0000000), wk =   0.0120000
        k(   24) = (  -0.1000000   0.7000000  -0.1000000), wk =   0.0480000
        k(   25) = (   0.8000000  -0.2000000   0.8000000), wk =   0.0480000
        k(   26) = (   0.7000000  -0.1000000   0.7000000), wk =   0.0480000
        k(   27) = (   0.6000000  -0.0000000   0.6000000), wk =   0.0240000
        k(   28) = (   0.0000000   0.8000000   0.0000000), wk =   0.0120000
        k(   29) = (   0.9000000  -0.1000000   0.9000000), wk =   0.0480000
        k(   30) = (   0.8000000   0.0000000   0.8000000), wk =   0.0240000
        k(   31) = (   0.0000000  -1.0000000   0.0000000), wk =   0.0060000
        k(   32) = (  -0.2000000   0.4000000   0.0000000), wk =   0.0480000
        k(   33) = (  -0.3000000   0.5000000  -0.1000000), wk =   0.0960000
        k(   34) = (   0.6000000  -0.4000000   0.8000000), wk =   0.0960000
        k(   35) = (   0.5000000  -0.3000000   0.7000000), wk =   0.0480000
        k(   36) = (  -0.2000000   0.6000000   0.0000000), wk =   0.0480000
        k(   37) = (   0.7000000  -0.3000000   0.9000000), wk =   0.0960000
        k(   38) = (   0.6000000  -0.2000000   0.8000000), wk =   0.0960000
        k(   39) = (   0.5000000  -0.1000000   0.7000000), wk =   0.0960000
        k(   40) = (   0.4000000   0.0000000   0.6000000), wk =   0.0480000
        k(   41) = (   0.8000000  -0.2000000   1.0000000), wk =   0.0480000
        k(   42) = (   0.7000000  -0.1000000   0.9000000), wk =   0.0960000
        k(   43) = (   0.6000000   0.0000000   0.8000000), wk =   0.0480000
        k(   44) = (  -0.2000000  -1.0000000   0.0000000), wk =   0.0240000
        k(   45) = (   0.6000000  -0.2000000   1.0000000), wk =   0.0480000
        k(   46) = (   0.5000000  -0.1000000   0.9000000), wk =   0.0480000
        k(   47) = (  -0.4000000  -1.0000000   0.0000000), wk =   0.0240000

     Dense  grid:    21595 G-vectors     FFT dimensions: (  40,  40,  40)

     Estimated max dynamical RAM per process >     137.28 MB

     Check: negative core charge=   -0.000002

     Initial potential from superposition of free atoms

     starting charge   38.99935, renormalised to   39.00000
     Starting wfcs are   28 randomized atomic wfcs
     Checking if some PAW data can be deallocated... 

     total cpu time spent up to now is        3.7 secs

     Self-consistent Calculation

     iteration #  1     ecut=    60.00 Ry     beta= 0.70
     Davidson diagonalization with overlap
     ethr =  1.00E-02,  avg # of iterations =  6.1

     total cpu time spent up to now is       14.1 secs

     total energy              =   -1387.92119185 Ry
     estimated scf accuracy    <       1.96233245 Ry

     iteration #  2     ecut=    60.00 Ry     beta= 0.70
     Davidson diagonalization with overlap
     ethr =  5.03E-03,  avg # of iterations =  3.1

     total cpu time spent up to now is       26.3 secs

     total energy              =   -1385.93548012 Ry
     estimated scf accuracy    <      56.13192264 Ry

     iteration #  3     ecut=    60.00 Ry     beta= 0.70
     Davidson diagonalization with overlap
     ethr =  5.03E-03,  avg # of iterations =  4.0

     total cpu time spent up to now is       37.2 secs

     total energy              =   -1389.40351602 Ry
     estimated scf accuracy    <       0.65516081 Ry

     iteration #  4     ecut=    60.00 Ry     beta= 0.70
     Davidson diagonalization with overlap
     ethr =  1.68E-03,  avg # of iterations =  1.9

     total cpu time spent up to now is       45.2 secs

     total energy              =   -1389.44826250 Ry
     estimated scf accuracy    <       0.11331133 Ry

     iteration #  5     ecut=    60.00 Ry     beta= 0.70
     Davidson diagonalization with overlap
     ethr =  2.91E-04,  avg # of iterations =  1.5

     total cpu time spent up to now is       52.9 secs

     total energy              =   -1389.44992819 Ry
     estimated scf accuracy    <       0.03312129 Ry

     iteration #  6     ecut=    60.00 Ry     beta= 0.70
     Davidson diagonalization with overlap
     ethr =  8.49E-05,  avg # of iterations =  2.3

     total cpu time spent up to now is       61.1 secs

     total energy              =   -1389.45383631 Ry
     estimated scf accuracy    <       0.01030306 Ry

     iteration #  7     ecut=    60.00 Ry     beta= 0.70
     Davidson diagonalization with overlap
     ethr =  2.64E-05,  avg # of iterations =  2.8

     total cpu time spent up to now is       69.7 secs

     total energy              =   -1389.45514337 Ry
     estimated scf accuracy    <       0.00597104 Ry

     iteration #  8     ecut=    60.00 Ry     beta= 0.70
     Davidson diagonalization with overlap
     ethr =  1.53E-05,  avg # of iterations =  1.7

     total cpu time spent up to now is       77.4 secs

     total energy              =   -1389.45574970 Ry
     estimated scf accuracy    <       0.00040432 Ry

     iteration #  9     ecut=    60.00 Ry     beta= 0.70
     Davidson diagonalization with overlap
     ethr =  1.04E-06,  avg # of iterations =  6.0

     total cpu time spent up to now is       89.5 secs

     total energy              =   -1389.45591263 Ry
     estimated scf accuracy    <       0.00001512 Ry

     iteration # 10     ecut=    60.00 Ry     beta= 0.70
     Davidson diagonalization with overlap
     ethr =  3.88E-08,  avg # of iterations =  3.9

     total cpu time spent up to now is       99.4 secs

     total energy              =   -1389.45591801 Ry
     estimated scf accuracy    <       0.00001661 Ry

     iteration # 11     ecut=    60.00 Ry     beta= 0.70
     Davidson diagonalization with overlap
     ethr =  3.88E-08,  avg # of iterations =  1.1

     total cpu time spent up to now is      106.6 secs

     total energy              =   -1389.45590964 Ry
     estimated scf accuracy    <       0.00001580 Ry

     iteration # 12     ecut=    60.00 Ry     beta= 0.70
     Davidson diagonalization with overlap
     ethr =  3.88E-08,  avg # of iterations =  2.0

     total cpu time spent up to now is      115.6 secs

     total energy              =   -1389.45591775 Ry
     estimated scf accuracy    <       0.00000705 Ry

     iteration # 13     ecut=    60.00 Ry     beta= 0.70
     Davidson diagonalization with overlap
     ethr =  1.81E-08,  avg # of iterations =  2.6

     total cpu time spent up to now is      124.6 secs

     total energy              =   -1389.45591018 Ry
     estimated scf accuracy    <       0.00001963 Ry

     iteration # 14     ecut=    60.00 Ry     beta= 0.70
     Davidson diagonalization with overlap
     ethr =  1.81E-08,  avg # of iterations =  2.1

     total cpu time spent up to now is      133.7 secs

     End of self-consistent calculation

          k = 0.0000 0.0000 0.0000 (  2733 PWs)   bands (ev):

   -92.1267 -52.5172 -52.5172 -52.5172   3.1707   6.9021   6.9021   7.0543
     7.0543   7.0543   8.2194   8.2194   8.2194   9.5175   9.5175   9.8651
     9.8651   9.8651  10.3438  10.3438  18.5630  19.7990  19.7990  19.7990
    19.8932  19.8932  19.8933  20.7795

          k =-0.1000 0.1000-0.1000 (  2704 PWs)   bands (ev):

   -92.1264 -52.5170 -52.5170 -52.5170   3.3135   6.9262   6.9262   7.0213
     7.0581   7.0581   8.2328   8.2475   8.2475   9.5015   9.5015   9.7671
     9.8489   9.8489  10.3415  10.3415  17.2469  18.8150  18.8470  18.8470
    20.6485  20.7644  20.7644  21.0795

          k =-0.2000 0.2000-0.2000 (  2677 PWs)   bands (ev):

   -92.1262 -52.5169 -52.5169 -52.5166   3.7263   6.9565   6.9568   6.9568
     7.1077   7.1077   8.2317   8.3245   8.3245   9.4195   9.4195   9.5316
     9.8343   9.8343  10.3430  10.3430  14.9618  17.9394  17.9394  18.8262
    20.4938  20.6889  20.6889  21.6330

          k =-0.3000 0.3000-0.3000 (  2674 PWs)   bands (ev):

   -92.1262 -52.5168 -52.5168 -52.5168   4.3485   6.9284   6.9472   6.9472
     7.2346   7.2346   8.1217   8.4309   8.4309   9.2407   9.2407   9.2981
     9.8668   9.8668  10.3536  10.3536  12.9796  17.1849  17.1849  18.7859
    20.1406  20.3863  20.3863  23.0070

          k =-0.4000 0.4000-0.4000 (  2689 PWs)   bands (ev):

   -92.1263 -52.5169 -52.5168 -52.5168   5.0119   6.9292   6.9292   7.0082
     7.3695   7.3695   7.8422   8.5437   8.5437   9.0273   9.0273   9.1682
     9.9202   9.9202  10.3655  10.3655  11.5396  16.6732  16.6732  18.7222
    19.9241  20.1774  20.1774  24.8380

          k = 0.5000-0.5000 0.5000 (  2692 PWs)   bands (ev):

   -92.1263 -52.5168 -52.5168 -52.5168   5.3324   6.9215   6.9215   7.1733
     7.4295   7.4295   7.5660   8.6132   8.6132   8.9092   8.9092   9.1298
     9.9456   9.9456  10.3704  10.3704  10.9889  16.4903  16.4903  18.6937
    19.8541  20.1053  20.1053  25.6039

          k = 0.0000 0.2000 0.0000 (  2701 PWs)   bands (ev):

   -92.1264 -52.5170 -52.5170 -52.5169   3.3618   6.8901   6.9755   6.9918
     7.0664   7.0664   8.1480   8.3072   8.3072   9.4956   9.5023   9.7856
     9.8250   9.8250  10.2875  10.3782  17.8515  17.8515  18.1407  18.5430
    20.0974  20.7326  21.5342  21.5343

          k =-0.1000 0.3000-0.1000 (  2691 PWs)   bands (ev):

   -92.1263 -52.5170 -52.5169 -52.5168   3.6869   6.8515   6.9639   7.0242
     7.0779   7.1228   8.1182   8.3901   8.4123   9.4293   9.4608   9.6159
     9.8018   9.8223  10.2443  10.3956  15.6971  16.9671  17.7292  18.7358
    19.8028  20.8827  21.6493  21.6649

          k =-0.2000 0.4000-0.2000 (  2691 PWs)   bands (ev):

   -92.1263 -52.5169 -52.5169 -52.5168   4.2467   6.7854   6.9876   7.0078
     7.1243   7.2679   8.1306   8.4337   8.5357   9.2432   9.3473   9.3836
     9.8413   9.8441  10.2392  10.4067  13.5949  16.2967  16.9543  18.5505
    20.7750  20.8362  21.4134  21.4327

          k =-0.3000 0.5000-0.3000 (  2687 PWs)   bands (ev):

   -92.1263 -52.5169 -52.5168 -52.5168   4.9205   6.7539   6.9786   7.0290
     7.2143   7.4125   8.0759   8.4648   8.6472   9.0011   9.1631   9.2316
     9.8902   9.9020  10.2848  10.4039  11.9289  15.9326  16.1755  18.4036
    20.7084  21.0303  21.0657  22.5482

          k = 0.6000-0.4000 0.6000 (  2682 PWs)   bands (ev):

   -92.1262 -52.5168 -52.5168 -52.5167   5.3989   6.7762   6.9537   7.1322
     7.2474   7.4793   7.9337   8.5627   8.6482   8.8988   9.0002   9.1526
     9.9089   9.9530  10.3619  10.3703  11.0192  15.6000  15.9563  18.4080
    20.4252  20.7181  21.2220  24.2843

          k = 0.5000-0.3000 0.5000 (  2681 PWs)   bands (ev):

   -92.1262 -52.5168 -52.5168 -52.5167   5.2850   6.8064   6.9427   7.0737
     7.2984   7.4142   7.9915   8.5111   8.6637   8.9203   9.0373   9.1643
     9.8752   9.9715  10.2976  10.4161  11.2275  15.3525  16.3918  18.5632
    20.1812  20.4605  21.5727  24.5305

          k = 0.4000-0.2000 0.4000 (  2674 PWs)   bands (ev):

   -92.1262 -52.5168 -52.5167 -52.5167   4.6914   6.8217   6.9466   7.0054
     7.2614   7.2795   8.1632   8.3928   8.6080   9.0748   9.2319   9.2558
     9.8364   9.9263  10.2410  10.4280  12.4409  15.4683  17.1841  18.8747
    20.0281  20.3215  21.9422  22.8195

          k = 0.3000-0.1000 0.3000 (  2684 PWs)   bands (ev):

   -92.1263 -52.5169 -52.5169 -52.5167   4.0352   6.8706   6.9535   7.0033
     7.1166   7.1848   8.2315   8.3004   8.4964   9.3021   9.3960   9.4334
     9.8226   9.8480  10.2416  10.4117  14.2784  15.8909  18.2265  19.3155
    19.9566  20.2759  21.3582  21.9674

          k = 0.2000 0.0000 0.2000 (  2693 PWs)   bands (ev):

   -92.1263 -52.5170 -52.5170 -52.5168   3.5472   6.9347   6.9438   6.9947
     7.0568   7.0976   8.2223   8.2465   8.3716   9.4513   9.4791   9.6469
     9.8173   9.8394  10.2841  10.3827  16.4230  16.5764  19.2932  19.3758
    20.0721  20.2002  20.7080  21.1941

          k = 0.0000 0.4000 0.0000 (  2694 PWs)   bands (ev):

   -92.1263 -52.5169 -52.5169 -52.5168   3.9228   6.7190   6.9226   7.1000
     7.1000   7.1888   8.0061   8.5449   8.5449   9.4136   9.4477   9.6727
     9.7519   9.7519  10.1430  10.4099  16.0192  16.0192  16.3871  17.7729
    18.8888  22.4223  22.4223  22.4639

          k =-0.1000 0.5000-0.1000 (  2681 PWs)   bands (ev):

   -92.1262 -52.5169 -52.5168 -52.5167   4.4062   6.5960   6.9164   7.0952
     7.1162   7.3586   7.9865   8.6556   8.6834   9.2595   9.3910   9.5190
     9.7902   9.8047  10.0988  10.4162  14.1719  15.2771  15.6646  17.9817
    19.0384  22.5219  22.6942  23.0653

          k =-0.2000 0.6000-0.2000 (  2688 PWs)   bands (ev):

   -92.1263 -52.5169 -52.5168 -52.5168   5.0480   6.5143   6.9549   7.0662
     7.1310   7.5335   8.0455   8.6939   8.8018   8.9810   9.2659   9.3698
     9.8395   9.8876  10.1872  10.4196  12.3732  14.8271  14.8651  18.0233
    20.2876  22.2046  22.4637  23.1403

          k = 0.7000-0.3000 0.7000 (  2685 PWs)   bands (ev):

   -92.1262 -52.5169 -52.5168 -52.5168   5.6048   6.5187   7.0254   7.0298
     7.1342   7.6331   8.1508   8.6956   8.6963   8.9176   9.1441   9.2509
     9.8114   9.9890  10.3508  10.4093  11.1228  14.1108  14.8918  18.0800
    21.7211  21.9222  22.0363  23.4517

          k = 0.6000-0.2000 0.6000 (  2681 PWs)   bands (ev):

   -92.1262 -52.5169 -52.5168 -52.5167   5.6661   6.6269   6.9991   7.0401
     7.1504   7.5713   8.2894   8.5094   8.7109   9.0265   9.0505   9.2015
     9.7701  10.0001  10.3093  10.4520  11.0126  13.6661  15.3838  18.2470
    21.3269  21.6094  23.1241  24.3925

          k = 0.5000-0.1000 0.5000 (  2682 PWs)   bands (ev):

   -92.1262 -52.5169 -52.5168 -52.5167   5.2074   6.6960   6.9812   6.9936
     7.2243   7.3852   8.3465   8.4050   8.7869   8.9339   9.2051   9.2414
     9.7553  10.0058  10.1393  10.4763  12.0380  13.5986  16.2492  18.5445
    21.0344  21.2434  22.5155  23.4857

          k = 0.4000 0.0000 0.4000 (  2666 PWs)   bands (ev):

   -92.1261 -52.5168 -52.5167 -52.5167   4.5699   6.7677   6.9712   7.0037
     7.2052   7.2323   8.3022   8.3338   8.6736   9.0998   9.3272   9.3311
     9.7811   9.9365  10.1320  10.4559  13.5310  14.0608  17.3219  18.9796
    20.6359  20.8355  21.4142  22.3135

          k = 0.0000 0.6000 0.0000 (  2670 PWs)   bands (ev):

   -92.1261 -52.5168 -52.5167 -52.5167   4.8111   6.4294   6.8350   7.1454
     7.1454   7.5214   7.8810   8.8105   8.8105   9.2208   9.3909   9.6019
     9.8102   9.8102   9.9863  10.4202  14.0886  14.4078  14.4078  17.5615
    18.3107  23.7567  23.7567  24.6194

          k =-0.1000 0.7000-0.1000 (  2692 PWs)   bands (ev):

   -92.1263 -52.5170 -52.5168 -52.5168   5.3947   6.3166   6.8109   7.1455
     7.1535   7.7195   7.8612   8.8724   8.8738   9.0187   9.3443   9.5247
     9.8253   9.9665  10.1101  10.4446  12.6801  13.6528  13.8567  17.7419
    18.6480  23.9284  24.0370  25.3165

          k = 0.8000-0.2000 0.8000 (  2684 PWs)   bands (ev):

   -92.1262 -52.5170 -52.5168 -52.5167   5.9494   6.3128   6.8493   7.1081
     7.1128   7.8763   7.9561   8.6544   8.9228   9.0150   9.2539   9.4368
     9.7288  10.1337  10.3648  10.5331  11.3418  12.8388  13.7921  17.8525
    19.9884  23.4873  23.6147  25.4354

          k = 0.7000-0.1000 0.7000 (  2668 PWs)   bands (ev):

   -92.1261 -52.5169 -52.5167 -52.5167   6.0209   6.5558   6.9338   7.0062
     7.0668   7.8466   8.1868   8.4664   8.9647   9.0929   9.1696   9.3311
     9.6580  10.1001  10.4875  10.4892  10.9671  12.2445  14.2762  17.9908
    21.7411  22.9876  22.9984  24.5690

          k = 0.6000-0.0000 0.6000 (  2678 PWs)   bands (ev):

   -92.1262 -52.5169 -52.5167 -52.5167   5.7331   6.6352   6.9432   7.0218
     7.1106   7.6128   8.3993   8.4290   8.8327   9.0670   9.1590   9.2632
     9.6714   9.9566  10.2659  10.5048  11.7437  12.2117  15.1680  18.2183
    22.2326  22.4026  22.7368  24.0373

          k = 0.0000 0.8000 0.0000 (  2682 PWs)   bands (ev):

   -92.1262 -52.5169 -52.5167 -52.5167   5.9083   6.1910   6.7276   7.1853
     7.1853   7.6614   7.9342   8.8877   8.9135   8.9135   9.3655   9.5600
     9.8920  10.1849  10.1849  10.5005  12.1637  13.1145  13.1145  17.4763
    18.0780  25.4565  25.4565  26.8173

          k = 0.9000-0.1000 0.9000 (  2690 PWs)   bands (ev):

   -92.1263 -52.5170 -52.5168 -52.5167   6.1324   6.4526   6.7304   7.1020
     7.1766   7.6069   8.1396   8.5914   8.9383   8.9948   9.3314   9.5307
     9.7927  10.3734  10.4353  10.6799  11.4027  12.3365  12.8932  17.6634
    18.4983  25.3103  25.5156  27.0278

          k = 0.8000 0.0000 0.8000 (  2668 PWs)   bands (ev):

   -92.1261 -52.5169 -52.5167 -52.5166   6.1318   6.7325   6.7981   6.8806
     7.1306   7.8760   8.1798   8.3646   9.0055   9.0887   9.2586   9.4690
     9.6628  10.3830  10.5157  10.7644  11.1451  11.5295  13.3532  17.8134
    19.9004  24.2897  24.7825  25.2742

          k = 0.0000-1.0000 0.0000 (  2698 PWs)   bands (ev):

   -92.1263 -52.5169 -52.5168 -52.5168   6.0935   6.6297   6.8676   7.1878
     7.2013   7.2013   8.2735   8.5706   8.9188   8.9188   9.3572   9.5481
     9.8643  10.5111  10.5111  10.7656  11.1467  12.5033  12.5033  17.4547
    18.0188  26.8875  26.8876  27.0614

          k =-0.2000 0.4000 0.0000 (  2679 PWs)   bands (ev):

   -92.1262 -52.5169 -52.5168 -52.5167   4.0899   6.7514   6.9667   7.0475
     7.0901   7.2309   8.0926   8.4674   8.5679   9.3074   9.4138   9.4932
     9.8000   9.8262  10.1751  10.4181  14.8229  15.2068  17.2379  18.8443
    19.5256  21.1434  21.6862  22.7074

          k =-0.3000 0.5000-0.1000 (  2688 PWs)   bands (ev):

   -92.1263 -52.5169 -52.5168 -52.5168   4.6942   6.6641   6.9932   7.0321
     7.1295   7.3700   8.1383   8.5193   8.7065   9.0788   9.3035   9.3432
     9.7943   9.9232  10.1505  10.4382  13.0051  14.5744  16.3236  18.9058
    20.2097  20.9864  21.9342  23.1494

          k = 0.6000-0.4000 0.8000 (  2680 PWs)   bands (ev):

   -92.1262 -52.5169 -52.5168 -52.5167   5.3295   6.6257   6.9916   7.0480
     7.1757   7.4981   8.1930   8.5351   8.7593   8.8981   9.1589   9.2303
     9.8000   9.9937  10.2356  10.4418  11.5259  14.3498  15.5362  18.7773
    20.2343  21.8826  22.4501  23.0372

          k = 0.5000-0.3000 0.7000 (  2686 PWs)   bands (ev):

   -92.1263 -52.5169 -52.5168 -52.5168   5.6291   6.6279   6.9775   7.1017
     7.1692   7.5553   8.2114   8.5548   8.6565   8.9520   9.0603   9.1791
     9.7980  10.0361  10.3256  10.4262  10.9008  14.3446  15.1769  18.7306
    20.1609  22.2384  22.4890  24.2480

          k =-0.2000 0.6000 0.0000 (  2688 PWs)   bands (ev):

   -92.1263 -52.5169 -52.5168 -52.5168   4.9390   6.4688   6.8987   7.0942
     7.1389   7.5249   7.9812   8.7515   8.8200   9.0766   9.3435   9.4612
     9.7727   9.9221  10.0763  10.4308  13.3096  13.8927  14.9484  18.3884
    19.0106  22.1823  23.5478  24.4053

          k = 0.7000-0.3000 0.9000 (  2682 PWs)   bands (ev):

   -92.1262 -52.5169 -52.5168 -52.5167   5.5592   6.4017   6.9232   7.0517
     7.1588   7.6828   8.0617   8.7917   8.8173   8.9211   9.2592   9.3791
     9.7177  10.0643  10.2152  10.4681  11.8933  13.3296  14.2449  18.6153
    20.1408  21.6414  23.9099  24.6950

          k = 0.6000-0.2000 0.8000 (  2683 PWs)   bands (ev):

   -92.1262 -52.5169 -52.5168 -52.5167   5.9387   6.4526   6.9695   6.9977
     7.1586   7.7484   8.2299   8.5531   8.8608   8.9822   9.1952   9.2836
     9.6541  10.1635  10.3868  10.5476  10.8743  13.0029  14.0635  18.7524
    21.0971  21.9028  23.6748  24.2435

          k = 0.5000-0.1000 0.7000 (  2679 PWs)   bands (ev):

   -92.1262 -52.5169 -52.5168 -52.5167   5.8000   6.5322   6.9611   7.0272
     7.1450   7.6534   8.3236   8.5213   8.8085   8.9943   9.2069   9.2505
     9.6511  10.0833  10.2845  10.5060  11.3068  12.7443  14.5678  19.0224
    20.7364  22.2764  23.4888  23.8347

          k = 0.4000 0.0000 0.6000 (  2692 PWs)   bands (ev):

   -92.1263 -52.5170 -52.5169 -52.5168   5.2853   6.5706   6.9858   7.0362
     7.1433   7.4925   8.2214   8.5894   8.8273   8.9297   9.2594   9.2880
     9.7154  10.0562  10.0991  10.4781  12.4176  13.0122  15.4094  19.4107
    20.1732  21.1634  22.8539  24.2644

          k = 0.8000-0.2000 1.0000 (  2679 PWs)   bands (ev):

   -92.1262 -52.5169 -52.5167 -52.5167   5.9591   6.2326   6.7882   7.0902
     7.1945   7.8280   7.9163   8.7303   8.9216   8.9990   9.3156   9.5017
     9.7308  10.2051  10.2825  10.5313  11.9297  12.7766  13.1949  18.1863
    18.7649  23.4647  25.3153  26.3750

          k = 0.7000-0.1000 0.9000 (  2672 PWs)   bands (ev):

   -92.1261 -52.5169 -52.5167 -52.5167   6.1807   6.4444   6.8288   6.9624
     7.1963   7.9636   8.0456   8.4826   8.9527   9.0940   9.2608   9.4256
     9.5999  10.3077  10.5030  10.7763  11.0959  12.0379  13.0490  18.4976
    20.0013  22.8317  24.5664  25.4853

          k = 0.6000 0.0000 0.8000 (  2675 PWs)   bands (ev):

   -92.1262 -52.5169 -52.5167 -52.5167   6.1125   6.5486   6.9017   6.9344
     7.1603   7.8963   8.2436   8.4148   8.9875   9.0658   9.2403   9.3153
     9.5555  10.2356  10.4565  10.5734  11.3798  11.5948  13.6487  18.7339
    21.8121  22.0591  22.9892  24.6741

          k =-0.2000-1.0000 0.0000 (  2688 PWs)   bands (ev):

   -92.1263 -52.5169 -52.5168 -52.5167   6.1364   6.7073   6.8020   6.8718
     7.2171   7.6564   8.3241   8.3565   8.9226   9.0733   9.3109   9.5094
     9.7004  10.4186  10.5563  10.9412  11.0289  12.2371  12.4141  18.1312
    18.6981  24.4830  25.5896  26.5747

          k = 0.6000-0.2000 1.0000 (  2695 PWs)   bands (ev):

   -92.1263 -52.5170 -52.5169 -52.5168   6.0545   6.3556   6.9153   6.9731
     7.2080   7.8296   8.1635   8.5895   8.9310   8.9548   9.2534   9.3581
     9.5752  10.2277  10.3715  10.5795  11.5522  12.1507  13.4228  19.8666
    20.2489  21.1937  24.0721  24.9525

          k = 0.5000-0.1000 0.9000 (  2684 PWs)   bands (ev):

   -92.1262 -52.5169 -52.5168 -52.5167   6.2330   6.3947   6.9116   6.9216
     7.2308   7.9076   8.2898   8.4275   8.9615   9.0208   9.2377   9.3066
     9.5266  10.2851  10.5408  10.7648  10.9899  11.9974  12.9877  20.0942
    20.6618  22.1017  22.1855  25.3832

          k =-0.4000-1.0000 0.0000 (  2680 PWs)   bands (ev):

   -92.1262 -52.5170 -52.5167 -52.5167   6.2672   6.4902   6.8556   6.8791
     7.2541   8.0775   8.1272   8.3906   8.9337   9.1925   9.2464   9.2746
     9.5308  10.3383  10.6297  10.8238  11.2864  11.7384  12.3093  19.7878
    20.4235  21.9836  22.8440  26.2246

     the Fermi energy is    10.5121 ev

!    total energy              =   -1389.45591272 Ry

     total all-electron energy =    -43178.955694 Ry
     estimated scf accuracy    <          6.3E-09 Ry
     smearing contrib. (-TS)   =      -0.00516969 Ry
     internal energy E=F+TS    =   -1389.45074303 Ry

     The total energy is F=E-TS. E is the sum of the following terms:
     one-electron contribution =    -300.48183589 Ry
     hartree contribution      =     185.18224135 Ry
     xc contribution           =    -102.63713884 Ry
     ewald contribution        =    -305.89251492 Ry
     one-center paw contrib.   =    -865.62149473 Ry

     convergence has been achieved in  14 iterations

     Writing output data file ././cunipt.save/

     init_run     :      3.46s CPU      3.53s WALL (       1 calls)
     electrons    :    128.46s CPU    129.97s WALL (       1 calls)

     Called by init_run:
     wfcinit      :      2.37s CPU      2.38s WALL (       1 calls)
     potinit      :      0.34s CPU      0.35s WALL (       1 calls)
     hinit0       :      0.67s CPU      0.67s WALL (       1 calls)

     Called by electrons:
     c_bands      :    107.19s CPU    107.36s WALL (      14 calls)
     sum_band     :     15.42s CPU     16.15s WALL (      14 calls)
     v_of_rho     :      0.29s CPU      0.30s WALL (      15 calls)
     newd         :      0.90s CPU      1.54s WALL (      15 calls)
     PAW_pot      :      4.99s CPU      5.00s WALL (      15 calls)
     mix_rho      :      0.05s CPU      0.05s WALL (      14 calls)

     Called by c_bands:
     init_us_2    :      1.18s CPU      1.19s WALL (    1363 calls)
     cegterg      :    103.02s CPU    103.18s WALL (     658 calls)

     Called by *egterg:
     cdiaghg      :      2.01s CPU      2.02s WALL (    2591 calls)
     h_psi        :     60.01s CPU     60.14s WALL (    2638 calls)
     s_psi        :      9.08s CPU      9.10s WALL (    2638 calls)
     g_psi        :      0.35s CPU      0.35s WALL (    1933 calls)

     Called by h_psi:
     h_psi:calbec :      8.45s CPU      8.46s WALL (    2638 calls)
     vloc_psi     :     42.21s CPU     42.31s WALL (    2638 calls)
     add_vuspsi   :      9.11s CPU      9.12s WALL (    2638 calls)

     General routines
     calbec       :     11.75s CPU     11.76s WALL (    3296 calls)
     fft          :      0.14s CPU      0.14s WALL (     165 calls)
     ffts         :      0.01s CPU      0.01s WALL (      14 calls)
     fftw         :     45.64s CPU     45.77s WALL (  110662 calls)

     Parallel routines

     PWSCF        :   2m12.15s CPU   2m13.78s WALL


   This run was terminated on:  20:54:22  13Sep2024            

=------------------------------------------------------------------------------=
   JOB DONE.
=------------------------------------------------------------------------------=
