
     Program PWSCF v.6.7MaX starts on 13Sep2024 at 20:37:27 

     This program is part of the open-source Quantum ESPRESSO suite
     for quantum simulation of materials; please cite
         "P. Giannozzi et al., J. Phys.:Condens. Matter 21 395502 (2009);
         "P. Giannozzi et al., J. Phys.:Condens. Matter 29 465901 (2017);
          URL http://www.quantum-espresso.org", 
     in publications or presentations arising from this work. More details at
     http://www.quantum-espresso.org/quote

     Parallel version (MPI), running on     1 processors

     MPI processes distributed on     1 nodes
     Waiting for input...
     Reading input from standard input

     Current dimensions of program PWSCF are:
     Max number of different atomic species (ntypx) = 10
     Max number of k-points (npk) =  40000
     Max angular momentum in pseudopotentials (lmaxx) =  3
     file Cu.upf: wavefunction(s)  4S 3D renormalized
     file Ni.upf: wavefunction(s)  3P 3D renormalized
     file Pt.upf: wavefunction(s)  6S 5D renormalized

     Subspace diagonalization in iterative solution of the eigenvalue problem:
     a serial algorithm will be used


     G-vector sticks info
     --------------------
     sticks:   dense  smooth     PW     G-vecs:    dense   smooth      PW
     Sum         955     955    283                19339    19339    3143



     bravais-lattice index     =            2
     lattice parameter (alat)  =      10.7000  a.u.
     unit-cell volume          =     306.2607 (a.u.)^3
     number of atoms/cell      =            3
     number of atomic types    =            3
     number of electrons       =        39.00
     number of Kohn-Sham states=           28
     kinetic-energy cutoff     =      60.0000  Ry
     charge density cutoff     =     240.0000  Ry
     scf convergence threshold =      1.0E-07
     mixing beta               =       0.7000
     number of iterations used =            8  plain     mixing
     Exchange-correlation= SLA  PW   PBX  PBC
                           (   1   4   3   4   0   0   0)

     celldm(1)=  10.700000  celldm(2)=   0.000000  celldm(3)=   0.000000
     celldm(4)=   0.000000  celldm(5)=   0.000000  celldm(6)=   0.000000

     crystal axes: (cart. coord. in units of alat)
               a(1) = (  -0.500000   0.000000   0.500000 )  
               a(2) = (   0.000000   0.500000   0.500000 )  
               a(3) = (  -0.500000   0.500000   0.000000 )  

     reciprocal axes: (cart. coord. in units 2 pi/alat)
               b(1) = ( -1.000000 -1.000000  1.000000 )  
               b(2) = (  1.000000  1.000000  1.000000 )  
               b(3) = ( -1.000000  1.000000 -1.000000 )  


     PseudoPot. # 1 for Cu read from file:
     ././Cu.upf
     MD5 check sum: cfffd1f38ee05704b3e17f46f1730a6f
     Pseudo is Projector augmented-wave + core cor, Zval = 11.0
     Generated using &quot;atomic&quot; code by A. Dal Corso  v.6.3
     Shape of augmentation charge: PSQ
     Using radial grid of 1199 points,  6 beta functions with: 
                l(1) =   0
                l(2) =   0
                l(3) =   1
                l(4) =   1
                l(5) =   2
                l(6) =   2
     Q(r) pseudized with 0 coefficients 


     PseudoPot. # 2 for Ni read from file:
     ././Ni.upf
     MD5 check sum: 6e86b733589c3ad8389697b807d86aa7
     Pseudo is Projector augmented-wave + core cor, Zval = 18.0
     Generated using &quot;atomic&quot; code by A. Dal Corso  v.6.3
     Shape of augmentation charge: PSQ
     Using radial grid of 1195 points,  6 beta functions with: 
                l(1) =   0
                l(2) =   0
                l(3) =   1
                l(4) =   1
                l(5) =   2
                l(6) =   2
     Q(r) pseudized with 0 coefficients 


     PseudoPot. # 3 for Pt read from file:
     ././Pt.upf
     MD5 check sum: c5224e9cd7a5e36e81f2def9f50bb494
     Pseudo is Projector augmented-wave + core cor, Zval = 10.0
     Generated using &quot;atomic&quot; code by A. Dal Corso  v.6.3
     Shape of augmentation charge: PSQ
     Using radial grid of 1277 points,  6 beta functions with: 
                l(1) =   0
                l(2) =   0
                l(3) =   1
                l(4) =   1
                l(5) =   2
                l(6) =   2
     Q(r) pseudized with 0 coefficients 


     atomic species   valence    mass     pseudopotential
        Cu            11.00    63.54600     Cu( 1.00)
        Ni            18.00    58.69300     Ni( 1.00)
        Pt            10.00   195.08000     Pt( 1.00)

     24 Sym. Ops. (no inversion) found



   Cartesian axes

     site n.     atom                  positions (alat units)
         1           Cu  tau(   1) = (   0.0000000   0.0000000   0.0000000  )
         2           Ni  tau(   2) = (   0.5000000   0.5000000   0.5000000  )
         3           Pt  tau(   3) = (   0.2500000   0.2500000   0.2500000  )

     number of k points=    47  Gaussian smearing, width (Ry)=  0.0100
                       cart. coord. in units 2pi/alat
        k(    1) = (   0.0000000   0.0000000   0.0000000), wk =   0.0020000
        k(    2) = (  -0.1000000   0.1000000  -0.1000000), wk =   0.0160000
        k(    3) = (  -0.2000000   0.2000000  -0.2000000), wk =   0.0160000
        k(    4) = (  -0.3000000   0.3000000  -0.3000000), wk =   0.0160000
        k(    5) = (  -0.4000000   0.4000000  -0.4000000), wk =   0.0160000
        k(    6) = (   0.5000000  -0.5000000   0.5000000), wk =   0.0080000
        k(    7) = (   0.0000000   0.2000000   0.0000000), wk =   0.0120000
        k(    8) = (  -0.1000000   0.3000000  -0.1000000), wk =   0.0480000
        k(    9) = (  -0.2000000   0.4000000  -0.2000000), wk =   0.0480000
        k(   10) = (  -0.3000000   0.5000000  -0.3000000), wk =   0.0480000
        k(   11) = (   0.6000000  -0.4000000   0.6000000), wk =   0.0480000
        k(   12) = (   0.5000000  -0.3000000   0.5000000), wk =   0.0480000
        k(   13) = (   0.4000000  -0.2000000   0.4000000), wk =   0.0480000
        k(   14) = (   0.3000000  -0.1000000   0.3000000), wk =   0.0480000
        k(   15) = (   0.2000000   0.0000000   0.2000000), wk =   0.0240000
        k(   16) = (   0.0000000   0.4000000   0.0000000), wk =   0.0120000
        k(   17) = (  -0.1000000   0.5000000  -0.1000000), wk =   0.0480000
        k(   18) = (  -0.2000000   0.6000000  -0.2000000), wk =   0.0480000
        k(   19) = (   0.7000000  -0.3000000   0.7000000), wk =   0.0480000
        k(   20) = (   0.6000000  -0.2000000   0.6000000), wk =   0.0480000
        k(   21) = (   0.5000000  -0.1000000   0.5000000), wk =   0.0480000
        k(   22) = (   0.4000000   0.0000000   0.4000000), wk =   0.0240000
        k(   23) = (   0.0000000   0.6000000   0.0000000), wk =   0.0120000
        k(   24) = (  -0.1000000   0.7000000  -0.1000000), wk =   0.0480000
        k(   25) = (   0.8000000  -0.2000000   0.8000000), wk =   0.0480000
        k(   26) = (   0.7000000  -0.1000000   0.7000000), wk =   0.0480000
        k(   27) = (   0.6000000  -0.0000000   0.6000000), wk =   0.0240000
        k(   28) = (   0.0000000   0.8000000   0.0000000), wk =   0.0120000
        k(   29) = (   0.9000000  -0.1000000   0.9000000), wk =   0.0480000
        k(   30) = (   0.8000000   0.0000000   0.8000000), wk =   0.0240000
        k(   31) = (   0.0000000  -1.0000000   0.0000000), wk =   0.0060000
        k(   32) = (  -0.2000000   0.4000000   0.0000000), wk =   0.0480000
        k(   33) = (  -0.3000000   0.5000000  -0.1000000), wk =   0.0960000
        k(   34) = (   0.6000000  -0.4000000   0.8000000), wk =   0.0960000
        k(   35) = (   0.5000000  -0.3000000   0.7000000), wk =   0.0480000
        k(   36) = (  -0.2000000   0.6000000   0.0000000), wk =   0.0480000
        k(   37) = (   0.7000000  -0.3000000   0.9000000), wk =   0.0960000
        k(   38) = (   0.6000000  -0.2000000   0.8000000), wk =   0.0960000
        k(   39) = (   0.5000000  -0.1000000   0.7000000), wk =   0.0960000
        k(   40) = (   0.4000000   0.0000000   0.6000000), wk =   0.0480000
        k(   41) = (   0.8000000  -0.2000000   1.0000000), wk =   0.0480000
        k(   42) = (   0.7000000  -0.1000000   0.9000000), wk =   0.0960000
        k(   43) = (   0.6000000   0.0000000   0.8000000), wk =   0.0480000
        k(   44) = (  -0.2000000  -1.0000000   0.0000000), wk =   0.0240000
        k(   45) = (   0.6000000  -0.2000000   1.0000000), wk =   0.0480000
        k(   46) = (   0.5000000  -0.1000000   0.9000000), wk =   0.0480000
        k(   47) = (  -0.4000000  -1.0000000   0.0000000), wk =   0.0240000

     Dense  grid:    19339 G-vectors     FFT dimensions: (  40,  40,  40)

     Estimated max dynamical RAM per process >     123.81 MB

     Check: negative core charge=   -0.000002

     Initial potential from superposition of free atoms

     starting charge   38.99935, renormalised to   39.00000
     Starting wfcs are   28 randomized atomic wfcs
     Checking if some PAW data can be deallocated... 

     total cpu time spent up to now is        3.5 secs

     Self-consistent Calculation

     iteration #  1     ecut=    60.00 Ry     beta= 0.70
     Davidson diagonalization with overlap
     ethr =  1.00E-02,  avg # of iterations =  6.1

     total cpu time spent up to now is       12.9 secs

     total energy              =   -1388.00757208 Ry
     estimated scf accuracy    <       1.85937827 Ry

     iteration #  2     ecut=    60.00 Ry     beta= 0.70
     Davidson diagonalization with overlap
     ethr =  4.77E-03,  avg # of iterations =  3.2

     total cpu time spent up to now is       23.3 secs

     total energy              =   -1385.87477401 Ry
     estimated scf accuracy    <      52.00450660 Ry

     iteration #  3     ecut=    60.00 Ry     beta= 0.70
     Davidson diagonalization with overlap
     ethr =  4.77E-03,  avg # of iterations =  4.0

     total cpu time spent up to now is       32.9 secs

     total energy              =   -1389.40070683 Ry
     estimated scf accuracy    <       0.62323828 Ry

     iteration #  4     ecut=    60.00 Ry     beta= 0.70
     Davidson diagonalization with overlap
     ethr =  1.60E-03,  avg # of iterations =  2.0

     total cpu time spent up to now is       40.3 secs

     total energy              =   -1389.44921641 Ry
     estimated scf accuracy    <       0.09552725 Ry

     iteration #  5     ecut=    60.00 Ry     beta= 0.70
     Davidson diagonalization with overlap
     ethr =  2.45E-04,  avg # of iterations =  1.6

     total cpu time spent up to now is       46.9 secs

     total energy              =   -1389.44963374 Ry
     estimated scf accuracy    <       0.03058342 Ry

     iteration #  6     ecut=    60.00 Ry     beta= 0.70
     Davidson diagonalization with overlap
     ethr =  7.84E-05,  avg # of iterations =  2.2

     total cpu time spent up to now is       54.5 secs

     total energy              =   -1389.45404026 Ry
     estimated scf accuracy    <       0.01697605 Ry

     iteration #  7     ecut=    60.00 Ry     beta= 0.70
     Davidson diagonalization with overlap
     ethr =  4.35E-05,  avg # of iterations =  1.3

     total cpu time spent up to now is       61.0 secs

     total energy              =   -1389.45605146 Ry
     estimated scf accuracy    <       0.00347096 Ry

     iteration #  8     ecut=    60.00 Ry     beta= 0.70
     Davidson diagonalization with overlap
     ethr =  8.90E-06,  avg # of iterations =  4.0

     total cpu time spent up to now is       68.3 secs

     total energy              =   -1389.45647781 Ry
     estimated scf accuracy    <       0.00017848 Ry

     iteration #  9     ecut=    60.00 Ry     beta= 0.70
     Davidson diagonalization with overlap
     ethr =  4.58E-07,  avg # of iterations =  5.2

     total cpu time spent up to now is       78.8 secs

     total energy              =   -1389.45658074 Ry
     estimated scf accuracy    <       0.00002372 Ry

     iteration # 10     ecut=    60.00 Ry     beta= 0.70
     Davidson diagonalization with overlap
     ethr =  6.08E-08,  avg # of iterations =  1.9

     total cpu time spent up to now is       85.8 secs

     total energy              =   -1389.45657464 Ry
     estimated scf accuracy    <       0.00002183 Ry

     iteration # 11     ecut=    60.00 Ry     beta= 0.70
     Davidson diagonalization with overlap
     ethr =  5.60E-08,  avg # of iterations =  1.9

     total cpu time spent up to now is       92.7 secs

     total energy              =   -1389.45658024 Ry
     estimated scf accuracy    <       0.00000814 Ry

     iteration # 12     ecut=    60.00 Ry     beta= 0.70
     Davidson diagonalization with overlap
     ethr =  2.09E-08,  avg # of iterations =  2.0

     total cpu time spent up to now is      100.3 secs

     total energy              =   -1389.45657822 Ry
     estimated scf accuracy    <       0.00001029 Ry

     iteration # 13     ecut=    60.00 Ry     beta= 0.70
     Davidson diagonalization with overlap
     ethr =  2.09E-08,  avg # of iterations =  1.1

     total cpu time spent up to now is      106.5 secs

     total energy              =   -1389.45657775 Ry
     estimated scf accuracy    <       0.00000216 Ry

     iteration # 14     ecut=    60.00 Ry     beta= 0.70
     Davidson diagonalization with overlap
     ethr =  5.53E-09,  avg # of iterations =  2.0

     total cpu time spent up to now is      114.1 secs

     End of self-consistent calculation

          k = 0.0000 0.0000 0.0000 (  2421 PWs)   bands (ev):

   -90.3904 -50.7838 -50.7838 -50.7838   4.2989   8.1791   8.1791   8.4134
     8.4134   8.4134   9.7488   9.7488   9.7488  11.3032  11.3032  11.6528
    11.6528  11.6528  12.2376  12.2376  21.4401  22.4687  22.4687  22.4687
    22.5118  22.5118  22.5118  23.3416

          k =-0.1000 0.1000-0.1000 (  2397 PWs)   bands (ev):

   -90.3902 -50.7837 -50.7837 -50.7835   4.4555   8.2099   8.2099   8.3769
     8.4137   8.4137   9.7653   9.7834   9.7834  11.2784  11.2784  11.5343
    11.6396  11.6396  12.2327  12.2327  19.7745  21.4203  21.4203  21.6050
    23.0826  23.4229  23.4229  23.7837

          k =-0.2000 0.2000-0.2000 (  2409 PWs)   bands (ev):

   -90.3903 -50.7839 -50.7837 -50.7837   4.9067   8.2641   8.2641   8.3079
     8.4495   8.4495   9.7633   9.8771   9.8771  11.1665  11.1665  11.2525
    11.6347  11.6347  12.2318  12.2318  17.3036  20.4260  20.4260  21.4801
    23.0968  23.2241  23.2241  24.4624

          k =-0.3000 0.3000-0.3000 (  2421 PWs)   bands (ev):

   -90.3904 -50.7841 -50.7838 -50.7838   5.5832   8.2671   8.2671   8.2854
     8.5805   8.5805   9.6260  10.0036  10.0036  10.9453  10.9453  10.9849
    11.6773  11.6773  12.2458  12.2458  15.1624  19.5831  19.5831  21.2437
    22.9475  22.9475  23.0498  25.8927

          k =-0.4000 0.4000-0.4000 (  2425 PWs)   bands (ev):

   -90.3904 -50.7843 -50.7839 -50.7839   6.2970   8.2484   8.2484   8.3868
     8.7353   8.7353   9.2944  10.1314  10.1314  10.6940  10.6940  10.8549
    11.7372  11.7372  12.2643  12.2643  13.5954  19.0046  19.0046  21.0556
    22.7635  22.7635  22.9997  27.6110

          k = 0.5000-0.5000 0.5000 (  2392 PWs)   bands (ev):

   -90.3901 -50.7842 -50.7837 -50.7837   6.6373   8.2396   8.2396   8.5796
     8.8059   8.8059   8.9807  10.2050  10.2050  10.5612  10.5612  10.8255
    11.7649  11.7649  12.2725  12.2725  12.9887  18.7967  18.7967  20.9882
    22.7006  22.7006  22.9807  28.3310

          k = 0.0000 0.2000 0.0000 (  2397 PWs)   bands (ev):

   -90.3902 -50.7836 -50.7836 -50.7836   4.5084   8.1745   8.2647   8.3326
     8.4260   8.4260   9.6669   9.8539   9.8539  11.2689  11.2784  11.5788
    11.6006  11.6006  12.1670  12.2769  20.3285  20.3285  20.9466  21.1815
    22.4062  23.4959  23.9404  23.9404

          k =-0.1000 0.3000-0.1000 (  2403 PWs)   bands (ev):

   -90.3902 -50.7839 -50.7836 -50.7836   4.8641   8.1652   8.2712   8.3432
     8.4337   8.4680   9.6350   9.9527   9.9799  11.1910  11.2028  11.3652
    11.5778  11.6236  12.1119  12.2957  18.0740  19.3571  20.3763  21.3304
    22.2014  23.5805  24.1452  24.2488

          k =-0.2000 0.4000-0.2000 (  2415 PWs)   bands (ev):

   -90.3903 -50.7841 -50.7838 -50.7837   5.4738   8.1091   8.3014   8.3400
     8.4691   8.6193   9.6510  10.0019  10.1266  10.9555  11.0499  11.0978
    11.6375  11.6561  12.1058  12.3076  15.8139  18.6111  19.4566  20.9933
    23.3554  23.6081  24.0076  24.1572

          k =-0.3000 0.5000-0.3000 (  2404 PWs)   bands (ev):

   -90.3902 -50.7842 -50.7837 -50.7837   6.2006   8.0752   8.3075   8.3684
     8.5618   8.7857   9.5777  10.0374  10.2528  10.6660  10.8385  10.9284
    11.7086  11.7103  12.1645  12.3054  14.0106  18.1968  18.5568  20.8083
    23.4185  23.6857  23.9102  25.2803

          k = 0.6000-0.4000 0.6000 (  2408 PWs)   bands (ev):

   -90.3903 -50.7842 -50.7838 -50.7838   6.7081   8.0929   8.2787   8.5039
     8.6021   8.8626   9.4072  10.1507  10.2477  10.5467  10.6588  10.8501
    11.7210  11.7765  12.2598  12.2662  13.0172  17.9048  18.2132  20.7820
    23.2735  23.3456  24.0329  27.0947

          k = 0.5000-0.3000 0.5000 (  2412 PWs)   bands (ev):

   -90.3903 -50.7843 -50.7838 -50.7838   6.5873   8.1292   8.2664   8.4434
     8.6528   8.7829   9.4737  10.0971  10.2635  10.5732  10.6985  10.8572
    11.6894  11.7922  12.1803  12.3236  13.2464  17.6332  18.6932  20.9121
    23.0737  23.0817  24.3553  27.4258

          k = 0.4000-0.2000 0.4000 (  2413 PWs)   bands (ev):

   -90.3903 -50.7842 -50.7838 -50.7838   5.9538   8.1567   8.2712   8.3453
     8.6032   8.6319   9.6796   9.9628  10.2023  10.7522  10.9241  10.9434
    11.6523  11.7353  12.1114  12.3344  14.5676  17.7771  19.5748  21.2128
    22.9127  22.9259  24.6698  25.6742

          k = 0.3000-0.1000 0.3000 (  2416 PWs)   bands (ev):

   -90.3904 -50.7840 -50.7838 -50.7837   5.2435   8.2099   8.2716   8.3278
     8.4449   8.5316   9.7674   9.8522  10.0745  11.0277  11.1237  11.1393
    11.6375  11.6389  12.1107  12.3128  16.5509  18.2665  20.7359  21.7018
    22.7483  22.8673  24.1395  24.5053

          k = 0.2000 0.0000 0.2000 (  2413 PWs)   bands (ev):

   -90.3903 -50.7838 -50.7838 -50.7837   4.7112   8.2274   8.2654   8.3205
     8.4016   8.4520   9.7551   9.7849   9.9294  11.2146  11.2371  11.3958
    11.5947  11.6452  12.1625  12.2794  18.8280  19.0649  21.9320  22.1562
    22.4924  22.7255  23.5352  23.5543

          k = 0.0000 0.4000 0.0000 (  2421 PWs)   bands (ev):

   -90.3904 -50.7840 -50.7838 -50.7838   5.1223   8.0290   8.2014   8.4621
     8.4621   8.5142   9.5069  10.1389  10.1389  11.1741  11.1829  11.4823
    11.5004  11.5004  11.9863  12.3137  18.3131  18.3131  18.9004  20.5673
    21.1470  24.9085  24.9085  25.3511

          k =-0.1000 0.5000-0.1000 (  2411 PWs)   bands (ev):

   -90.3903 -50.7842 -50.7837 -50.7837   5.6490   7.8958   8.1879   8.4507
     8.4795   8.7172   9.4894  10.2707  10.3052  10.9843  11.1002  11.2652
    11.5536  11.6009  11.9314  12.3195  16.3930  17.4874  18.0436  20.6275
    21.4743  25.1077  25.2828  26.0314

          k =-0.2000 0.6000-0.2000 (  2400 PWs)   bands (ev):

   -90.3902 -50.7843 -50.7837 -50.7836   6.3415   7.8069   8.2314   8.4142
     8.5020   8.9241   9.5627  10.3066  10.4419  10.6412  10.9484  11.0946
    11.6239  11.7007  12.0396  12.3201  14.4575  17.0192  17.1216  20.5619
    22.8841  24.9144  25.1377  26.1030

          k = 0.7000-0.3000 0.7000 (  2408 PWs)   bands (ev):

   -90.3903 -50.7843 -50.7838 -50.7837   6.9277   7.8136   8.3106   8.3706
     8.5271   9.0403   9.6824  10.2922  10.3073  10.5654  10.8144  10.9667
    11.6010  11.8117  12.2414  12.3005  13.1098  16.3313  17.0377  20.5849
    24.4527  24.6668  24.7292  26.3989

          k = 0.6000-0.2000 0.6000 (  2400 PWs)   bands (ev):

   -90.3902 -50.7842 -50.7838 -50.7837   6.9829   7.9381   8.3354   8.3782
     8.5077   8.9616   9.8330  10.0991  10.3158  10.6838  10.7060  10.9037
    11.5658  11.8241  12.1766  12.3650  12.9973  15.8458  17.5808  20.7249
    24.1434  24.2876  25.8636  27.3429

          k = 0.5000-0.1000 0.5000 (  2400 PWs)   bands (ev):

   -90.3902 -50.7842 -50.7837 -50.7837   6.5040   8.0220   8.3168   8.3358
     8.5634   8.7387   9.9051   9.9826  10.4054  10.5807  10.8796  10.9322
    11.5623  11.8269  11.9820  12.3923  14.1046  15.7894  18.5426  20.9913
    23.8437  23.9041  25.2838  26.1677

          k = 0.4000 0.0000 0.4000 (  2401 PWs)   bands (ev):

   -90.3902 -50.7841 -50.7837 -50.7837   5.8232   8.1003   8.3056   8.3341
     8.5303   8.5780   9.8575   9.8965  10.2728  10.7843  11.0198  11.0328
    11.5976  11.7369  11.9816  12.3655  15.6995  16.3286  19.7306  21.3801
    23.4178  23.4970  24.2069  24.8727

          k = 0.0000 0.6000 0.0000 (  2409 PWs)   bands (ev):

   -90.3903 -50.7843 -50.7837 -50.7837   6.0902   7.7082   8.0874   8.5125
     8.5125   8.9046   9.3737  10.4592  10.4592  10.9494  11.1028  11.4118
    11.5522  11.5522  11.7954  12.3254  16.3803  16.5190  16.5190  20.3648
    20.6338  26.3957  26.3957  27.6490

          k =-0.1000 0.7000-0.1000 (  2401 PWs)   bands (ev):

   -90.3902 -50.7843 -50.7837 -50.7837   6.7195   7.5827   8.0572   8.5105
     8.5270   9.1396   9.3584  10.5253  10.5294  10.6996  11.0512  11.3034
    11.5920  11.7551  11.9351  12.3509  14.7676  15.7869  15.8922  20.4210
    21.1266  26.6855  26.7785  28.3896

          k = 0.8000-0.2000 0.8000 (  2398 PWs)   bands (ev):

   -90.3902 -50.7843 -50.7837 -50.7837   7.2855   7.5946   8.0988   8.4701
     8.5034   9.3260   9.4686  10.2541  10.5738  10.6903  10.9480  11.1989
    11.4897  11.9541  12.2537  12.4409  13.2959  14.9414  15.8044  20.4495
    22.5994  26.3180  26.3833  28.4267

          k = 0.7000-0.1000 0.7000 (  2387 PWs)   bands (ev):

   -90.3901 -50.7841 -50.7837 -50.7837   7.3173   7.8812   8.2041   8.4129
     8.4158   9.2835   9.7303  10.0441  10.6103  10.7612  10.8527  11.0673
    11.4236  11.9066  12.3573  12.4104  12.9329  14.3140  16.3422  20.5541
    24.4487  25.7301  25.8300  27.4368

          k = 0.6000-0.0000 0.6000 (  2385 PWs)   bands (ev):

   -90.3900 -50.7841 -50.7837 -50.7836   7.0419   7.9601   8.2909   8.3643
     8.4387   9.0031   9.9708  10.0120  10.4753  10.7135  10.8215  10.9672
    11.4581  11.7652  12.1198  12.4283  13.7467  14.3153  17.3411  20.7398
    24.9398  25.2056  25.5470  26.8259

          k = 0.0000 0.8000 0.0000 (  2401 PWs)   bands (ev):

   -90.3902 -50.7844 -50.7837 -50.7837   7.2654   7.4454   7.9647   8.5580
     8.5580   9.1446   9.3920  10.5418  10.5736  10.5736  11.0856  11.3583
    11.6870  12.0094  12.0094  12.4175  14.2762  15.0434  15.0434  20.3009
    20.4413  28.3059  28.3059  29.9805

          k = 0.9000-0.1000 0.9000 (  2403 PWs)   bands (ev):

   -90.3902 -50.7843 -50.7837 -50.7837   7.3765   7.7999   8.0076   8.4972
     8.5468   9.0794   9.6372  10.1787  10.5964  10.6703  11.0505  11.3210
    11.5637  12.2554  12.3387  12.6200  13.4027  14.2275  14.7698  20.3642
    21.0028  28.1647  28.4678  30.0814

          k = 0.8000 0.0000 0.8000 (  2406 PWs)   bands (ev):

   -90.3902 -50.7843 -50.7838 -50.7838   7.3864   8.0101   8.0961   8.3352
     8.4914   9.3773   9.6804   9.9133  10.6652  10.7754  10.9651  11.2501
    11.4114  12.2714  12.4449  12.6296  13.1354  13.4502  15.2929  20.4307
    22.5204  27.0898  27.7264  28.1780

          k = 0.0000-1.0000 0.0000 (  2450 PWs)   bands (ev):

   -90.3906 -50.7846 -50.7840 -50.7840   7.3298   7.8417   8.3250   8.5765
     8.5765   8.6302   9.7923  10.1609  10.5742  10.5742  11.0848  11.3393
    11.6564  12.4407  12.4407  12.7127  13.1635  14.3009  14.3009  20.2964
    20.3880  29.7913  30.0141  30.0141

          k =-0.2000 0.4000 0.0000 (  2414 PWs)   bands (ev):

   -90.3903 -50.7841 -50.7837 -50.7837   5.3038   8.0703   8.2596   8.3900
     8.4401   8.5758   9.6093  10.0486  10.1609  11.0383  11.1323  11.2228
    11.5952  11.6179  12.0284  12.3208  17.0963  17.5396  19.6883  21.5765
    21.8492  23.7763  24.3958  25.4003

          k =-0.3000 0.5000-0.1000 (  2408 PWs)   bands (ev):

   -90.3903 -50.7842 -50.7837 -50.7837   5.9585   7.9773   8.3008   8.3753
     8.4751   8.7320   9.6672  10.1080  10.3195  10.7587  10.9931  11.0514
    11.6026  11.7255  12.0010  12.3439  15.1530  16.8247  18.6714  21.3944
    22.8185  23.7072  24.6359  25.9547

          k = 0.6000-0.4000 0.8000 (  2407 PWs)   bands (ev):

   -90.3903 -50.7843 -50.7838 -50.7837   6.6360   7.9343   8.3244   8.3795
     8.5302   8.8805   9.7267  10.1170  10.3787  10.5421  10.8295  10.9313
    11.6012  11.8177  12.1003  12.3491  13.5558  16.5700  17.7885  21.1998
    23.0056  24.5909  25.1362  25.9694

          k = 0.5000-0.3000 0.7000 (  2404 PWs)   bands (ev):

   -90.3902 -50.7842 -50.7838 -50.7838   6.9485   7.9325   8.3134   8.4285
     8.5452   8.9484   9.7369  10.1426  10.2589  10.5949  10.7273  10.8806
    11.5960  11.8685  12.2036  12.3307  12.8791  16.5755  17.3709  21.1348
    22.9662  24.8985  25.3374  27.2050

          k =-0.2000 0.6000 0.0000 (  2409 PWs)   bands (ev):

   -90.3903 -50.7843 -50.7838 -50.7837   6.2262   7.7546   8.1631   8.4551
     8.5033   8.9113   9.4896  10.3874  10.4630  10.7600  11.0450  11.1972
    11.5580  11.7074  11.9092  12.3343  15.4487  16.0479  17.1831  21.1459
    21.3738  24.8969  26.1971  27.4365

          k = 0.7000-0.3000 0.9000 (  2406 PWs)   bands (ev):

   -90.3902 -50.7843 -50.7838 -50.7837   6.8854   7.6817   8.1886   8.4181
     8.5290   9.0973   9.5870  10.4206  10.4548  10.5699  10.9486  11.1055
    11.4937  11.8864  12.0729  12.3745  13.9129  15.4563  16.3862  21.2027
    22.7196  24.4105  26.6041  27.7108

          k = 0.6000-0.2000 0.8000 (  2403 PWs)   bands (ev):

   -90.3902 -50.7842 -50.7838 -50.7837   7.2629   7.7441   8.2432   8.3761
     8.5361   9.1737   9.7794  10.1435  10.4848  10.6275  10.8874  10.9956
    11.4297  12.0038  12.2693  12.4489  12.8301  15.1314  16.1513  21.2948
    23.8433  24.6244  26.4092  27.0595

          k = 0.5000-0.1000 0.7000 (  2402 PWs)   bands (ev):

   -90.3902 -50.7842 -50.7838 -50.7837   7.1175   7.8344   8.2853   8.3753
     8.5007   9.0578   9.8900  10.1068  10.4367  10.6341  10.8902  10.9507
    11.4333  11.9177  12.1408  12.4252  13.2930  14.8534  16.7196  21.5293
    23.5052  25.0096  26.2420  26.6047

          k = 0.4000 0.0000 0.6000 (  2398 PWs)   bands (ev):

   -90.3902 -50.7842 -50.7837 -50.7837   6.5891   7.8764   8.3002   8.3902
     8.4826   8.8692   9.7707  10.1902  10.4647  10.5706  10.9434  10.9824
    11.5110  11.8855  11.9324  12.3916  14.4798  15.1677  17.6583  21.8533
    22.9196  23.8840  25.5823  27.0433

          k = 0.8000-0.2000 1.0000 (  2395 PWs)   bands (ev):

   -90.3901 -50.7843 -50.7837 -50.7837   7.3134   7.4926   8.0299   8.4695
     8.5679   9.3221   9.3763  10.3457  10.5750  10.6802  11.0247  11.2738
    11.4911  12.0413  12.1485  12.4477  13.9588  14.7604  15.2030  20.9777
    21.1604  26.2832  28.1170  29.2772

          k = 0.7000-0.1000 0.9000 (  2399 PWs)   bands (ev):

   -90.3902 -50.7843 -50.7838 -50.7836   7.4466   7.7864   8.0706   8.3794
     8.5701   9.4737   9.5292  10.0536  10.5988  10.7802  10.9679  11.1594
    11.3668  12.1765  12.4228  12.7264  12.9945  14.0411  15.0089  21.1329
    22.6022  25.6470  27.3930  28.3678

          k = 0.6000 0.0000 0.8000 (  2400 PWs)   bands (ev):

   -90.3902 -50.7842 -50.7838 -50.7837   7.3995   7.8593   8.1794   8.3461
     8.5227   9.3440   9.7971   9.9867  10.6328  10.7205  10.9467  11.0216
    11.3323  12.0824  12.3256  12.4998  13.3300  13.6281  15.6886  21.3201
    24.5249  24.8556  25.7310  27.5103

          k =-0.2000-1.0000 0.0000 (  2408 PWs)   bands (ev):

   -90.3902 -50.7844 -50.7838 -50.7837   7.3799   7.9296   8.1522   8.3304
     8.5942   9.1289   9.8592   9.8960  10.5712  10.7648  11.0282  11.2874
    11.4571  12.3231  12.4966  12.9114  13.0058  14.1076  14.2505  20.9380
    21.1054  27.3601  28.4963  29.6112

          k = 0.6000-0.2000 1.0000 (  2402 PWs)   bands (ev):

   -90.3902 -50.7842 -50.7838 -50.7837   7.3853   7.6331   8.1748   8.3735
     8.5778   9.2691   9.7077  10.1873  10.5762  10.5925  10.9542  11.0675
    11.3540  12.0843  12.2480  12.5039  13.5154  14.1871  15.4863  22.6104
    22.7223  23.9892  26.8639  27.7435

          k = 0.5000-0.1000 0.9000 (  2410 PWs)   bands (ev):

   -90.3903 -50.7843 -50.7839 -50.7837   7.5365   7.6783   8.1732   8.3489
     8.6043   9.3613   9.8566  10.0003  10.5934  10.6554  10.9400  11.0113
    11.3175  12.1528  12.4622  12.7024  12.8904  14.0332  14.9853  22.6716
    23.4573  24.8526  24.8735  28.2161

          k =-0.4000-1.0000 0.0000 (  2396 PWs)   bands (ev):

   -90.3901 -50.7842 -50.7838 -50.7837   7.5321   7.7915   8.1002   8.3390
     8.6326   9.5591   9.6685   9.9554  10.5648  10.8921  10.8929  10.9985
    11.3285  12.2197  12.5852  12.7504  13.2723  13.6989  14.1928  22.5725
    22.9240  24.7987  25.5848  29.1848

     the Fermi energy is    12.4187 ev

!    total energy              =   -1389.45657811 Ry

     total all-electron energy =    -43178.956359 Ry
     estimated scf accuracy    <       0.00000001 Ry
     smearing contrib. (-TS)   =      -0.00476632 Ry
     internal energy E=F+TS    =   -1389.45181179 Ry

     The total energy is F=E-TS. E is the sum of the following terms:
     one-electron contribution =    -282.05811922 Ry
     hartree contribution      =     178.42824384 Ry
     xc contribution           =    -102.83219566 Ry
     ewald contribution        =    -317.32774912 Ry
     one-center paw contrib.   =    -865.66199162 Ry

     convergence has been achieved in  14 iterations

     Writing output data file ././cunipt.save/

     init_run     :      3.22s CPU      3.29s WALL (       1 calls)
     electrons    :    109.28s CPU    110.65s WALL (       1 calls)

     Called by init_run:
     wfcinit      :      2.14s CPU      2.16s WALL (       1 calls)
     potinit      :      0.33s CPU      0.35s WALL (       1 calls)
     hinit0       :      0.67s CPU      0.67s WALL (       1 calls)

     Called by electrons:
     c_bands      :     90.21s CPU     90.40s WALL (      14 calls)
     sum_band     :     13.55s CPU     14.21s WALL (      14 calls)
     v_of_rho     :      0.28s CPU      0.28s WALL (      15 calls)
     newd         :      0.75s CPU      1.31s WALL (      15 calls)
     PAW_pot      :      4.81s CPU      4.83s WALL (      15 calls)
     mix_rho      :      0.04s CPU      0.04s WALL (      14 calls)

     Called by c_bands:
     init_us_2    :      0.99s CPU      0.99s WALL (    1363 calls)
     cegterg      :     86.75s CPU     86.94s WALL (     658 calls)

     Called by *egterg:
     cdiaghg      :      1.77s CPU      1.78s WALL (    2478 calls)
     h_psi        :     52.32s CPU     52.48s WALL (    2525 calls)
     s_psi        :      7.44s CPU      7.45s WALL (    2525 calls)
     g_psi        :      0.29s CPU      0.29s WALL (    1820 calls)

     Called by h_psi:
     h_psi:calbec :      6.85s CPU      6.86s WALL (    2525 calls)
     vloc_psi     :     37.80s CPU     37.93s WALL (    2525 calls)
     add_vuspsi   :      7.48s CPU      7.50s WALL (    2525 calls)

     General routines
     calbec       :      9.62s CPU      9.63s WALL (    3183 calls)
     fft          :      0.13s CPU      0.13s WALL (     165 calls)
     ffts         :      0.01s CPU      0.01s WALL (      14 calls)
     fftw         :     41.05s CPU     41.18s WALL (  108992 calls)

     Parallel routines

     PWSCF        :   1m52.72s CPU   1m54.21s WALL


   This run was terminated on:  20:39:21  13Sep2024            

=------------------------------------------------------------------------------=
   JOB DONE.
=------------------------------------------------------------------------------=
