
     Program PWSCF v.6.7MaX starts on 13Sep2024 at 20:54:22 

     This program is part of the open-source Quantum ESPRESSO suite
     for quantum simulation of materials; please cite
         "P. Giannozzi et al., J. Phys.:Condens. Matter 21 395502 (2009);
         "P. Giannozzi et al., J. Phys.:Condens. Matter 29 465901 (2017);
          URL http://www.quantum-espresso.org", 
     in publications or presentations arising from this work. More details at
     http://www.quantum-espresso.org/quote

     Parallel version (MPI), running on     1 processors

     MPI processes distributed on     1 nodes
     Waiting for input...
     Reading input from standard input

     Current dimensions of program PWSCF are:
     Max number of different atomic species (ntypx) = 10
     Max number of k-points (npk) =  40000
     Max angular momentum in pseudopotentials (lmaxx) =  3
     file Cu.upf: wavefunction(s)  4S 3D renormalized
     file Ni.upf: wavefunction(s)  3P 3D renormalized
     file Pt.upf: wavefunction(s)  6S 5D renormalized

     Subspace diagonalization in iterative solution of the eigenvalue problem:
     a serial algorithm will be used


     G-vector sticks info
     --------------------
     sticks:   dense  smooth     PW     G-vecs:    dense   smooth      PW
     Sum        1039    1039    313                22123    22123    3695



     bravais-lattice index     =            2
     lattice parameter (alat)  =      11.2000  a.u.
     unit-cell volume          =     351.2320 (a.u.)^3
     number of atoms/cell      =            3
     number of atomic types    =            3
     number of electrons       =        39.00
     number of Kohn-Sham states=           28
     kinetic-energy cutoff     =      60.0000  Ry
     charge density cutoff     =     240.0000  Ry
     scf convergence threshold =      1.0E-07
     mixing beta               =       0.7000
     number of iterations used =            8  plain     mixing
     Exchange-correlation= SLA  PW   PBX  PBC
                           (   1   4   3   4   0   0   0)

     celldm(1)=  11.200000  celldm(2)=   0.000000  celldm(3)=   0.000000
     celldm(4)=   0.000000  celldm(5)=   0.000000  celldm(6)=   0.000000

     crystal axes: (cart. coord. in units of alat)
               a(1) = (  -0.500000   0.000000   0.500000 )  
               a(2) = (   0.000000   0.500000   0.500000 )  
               a(3) = (  -0.500000   0.500000   0.000000 )  

     reciprocal axes: (cart. coord. in units 2 pi/alat)
               b(1) = ( -1.000000 -1.000000  1.000000 )  
               b(2) = (  1.000000  1.000000  1.000000 )  
               b(3) = ( -1.000000  1.000000 -1.000000 )  


     PseudoPot. # 1 for Cu read from file:
     ././Cu.upf
     MD5 check sum: cfffd1f38ee05704b3e17f46f1730a6f
     Pseudo is Projector augmented-wave + core cor, Zval = 11.0
     Generated using &quot;atomic&quot; code by A. Dal Corso  v.6.3
     Shape of augmentation charge: PSQ
     Using radial grid of 1199 points,  6 beta functions with: 
                l(1) =   0
                l(2) =   0
                l(3) =   1
                l(4) =   1
                l(5) =   2
                l(6) =   2
     Q(r) pseudized with 0 coefficients 


     PseudoPot. # 2 for Ni read from file:
     ././Ni.upf
     MD5 check sum: 6e86b733589c3ad8389697b807d86aa7
     Pseudo is Projector augmented-wave + core cor, Zval = 18.0
     Generated using &quot;atomic&quot; code by A. Dal Corso  v.6.3
     Shape of augmentation charge: PSQ
     Using radial grid of 1195 points,  6 beta functions with: 
                l(1) =   0
                l(2) =   0
                l(3) =   1
                l(4) =   1
                l(5) =   2
                l(6) =   2
     Q(r) pseudized with 0 coefficients 


     PseudoPot. # 3 for Pt read from file:
     ././Pt.upf
     MD5 check sum: c5224e9cd7a5e36e81f2def9f50bb494
     Pseudo is Projector augmented-wave + core cor, Zval = 10.0
     Generated using &quot;atomic&quot; code by A. Dal Corso  v.6.3
     Shape of augmentation charge: PSQ
     Using radial grid of 1277 points,  6 beta functions with: 
                l(1) =   0
                l(2) =   0
                l(3) =   1
                l(4) =   1
                l(5) =   2
                l(6) =   2
     Q(r) pseudized with 0 coefficients 


     atomic species   valence    mass     pseudopotential
        Cu            11.00    63.54600     Cu( 1.00)
        Ni            18.00    58.69300     Ni( 1.00)
        Pt            10.00   195.08000     Pt( 1.00)

     24 Sym. Ops. (no inversion) found



   Cartesian axes

     site n.     atom                  positions (alat units)
         1           Cu  tau(   1) = (   0.0000000   0.0000000   0.0000000  )
         2           Ni  tau(   2) = (   0.5000000   0.5000000   0.5000000  )
         3           Pt  tau(   3) = (   0.2500000   0.2500000   0.2500000  )

     number of k points=    47  Gaussian smearing, width (Ry)=  0.0100
                       cart. coord. in units 2pi/alat
        k(    1) = (   0.0000000   0.0000000   0.0000000), wk =   0.0020000
        k(    2) = (  -0.1000000   0.1000000  -0.1000000), wk =   0.0160000
        k(    3) = (  -0.2000000   0.2000000  -0.2000000), wk =   0.0160000
        k(    4) = (  -0.3000000   0.3000000  -0.3000000), wk =   0.0160000
        k(    5) = (  -0.4000000   0.4000000  -0.4000000), wk =   0.0160000
        k(    6) = (   0.5000000  -0.5000000   0.5000000), wk =   0.0080000
        k(    7) = (   0.0000000   0.2000000   0.0000000), wk =   0.0120000
        k(    8) = (  -0.1000000   0.3000000  -0.1000000), wk =   0.0480000
        k(    9) = (  -0.2000000   0.4000000  -0.2000000), wk =   0.0480000
        k(   10) = (  -0.3000000   0.5000000  -0.3000000), wk =   0.0480000
        k(   11) = (   0.6000000  -0.4000000   0.6000000), wk =   0.0480000
        k(   12) = (   0.5000000  -0.3000000   0.5000000), wk =   0.0480000
        k(   13) = (   0.4000000  -0.2000000   0.4000000), wk =   0.0480000
        k(   14) = (   0.3000000  -0.1000000   0.3000000), wk =   0.0480000
        k(   15) = (   0.2000000   0.0000000   0.2000000), wk =   0.0240000
        k(   16) = (   0.0000000   0.4000000   0.0000000), wk =   0.0120000
        k(   17) = (  -0.1000000   0.5000000  -0.1000000), wk =   0.0480000
        k(   18) = (  -0.2000000   0.6000000  -0.2000000), wk =   0.0480000
        k(   19) = (   0.7000000  -0.3000000   0.7000000), wk =   0.0480000
        k(   20) = (   0.6000000  -0.2000000   0.6000000), wk =   0.0480000
        k(   21) = (   0.5000000  -0.1000000   0.5000000), wk =   0.0480000
        k(   22) = (   0.4000000   0.0000000   0.4000000), wk =   0.0240000
        k(   23) = (   0.0000000   0.6000000   0.0000000), wk =   0.0120000
        k(   24) = (  -0.1000000   0.7000000  -0.1000000), wk =   0.0480000
        k(   25) = (   0.8000000  -0.2000000   0.8000000), wk =   0.0480000
        k(   26) = (   0.7000000  -0.1000000   0.7000000), wk =   0.0480000
        k(   27) = (   0.6000000  -0.0000000   0.6000000), wk =   0.0240000
        k(   28) = (   0.0000000   0.8000000   0.0000000), wk =   0.0120000
        k(   29) = (   0.9000000  -0.1000000   0.9000000), wk =   0.0480000
        k(   30) = (   0.8000000   0.0000000   0.8000000), wk =   0.0240000
        k(   31) = (   0.0000000  -1.0000000   0.0000000), wk =   0.0060000
        k(   32) = (  -0.2000000   0.4000000   0.0000000), wk =   0.0480000
        k(   33) = (  -0.3000000   0.5000000  -0.1000000), wk =   0.0960000
        k(   34) = (   0.6000000  -0.4000000   0.8000000), wk =   0.0960000
        k(   35) = (   0.5000000  -0.3000000   0.7000000), wk =   0.0480000
        k(   36) = (  -0.2000000   0.6000000   0.0000000), wk =   0.0480000
        k(   37) = (   0.7000000  -0.3000000   0.9000000), wk =   0.0960000
        k(   38) = (   0.6000000  -0.2000000   0.8000000), wk =   0.0960000
        k(   39) = (   0.5000000  -0.1000000   0.7000000), wk =   0.0960000
        k(   40) = (   0.4000000   0.0000000   0.6000000), wk =   0.0480000
        k(   41) = (   0.8000000  -0.2000000   1.0000000), wk =   0.0480000
        k(   42) = (   0.7000000  -0.1000000   0.9000000), wk =   0.0960000
        k(   43) = (   0.6000000   0.0000000   0.8000000), wk =   0.0480000
        k(   44) = (  -0.2000000  -1.0000000   0.0000000), wk =   0.0240000
        k(   45) = (   0.6000000  -0.2000000   1.0000000), wk =   0.0480000
        k(   46) = (   0.5000000  -0.1000000   0.9000000), wk =   0.0480000
        k(   47) = (  -0.4000000  -1.0000000   0.0000000), wk =   0.0240000

     Dense  grid:    22123 G-vectors     FFT dimensions: (  40,  40,  40)

     Estimated max dynamical RAM per process >     140.61 MB

     Check: negative core charge=   -0.000002

     Initial potential from superposition of free atoms

     starting charge   38.99935, renormalised to   39.00000
     Starting wfcs are   28 randomized atomic wfcs
     Checking if some PAW data can be deallocated... 

     total cpu time spent up to now is        4.1 secs

     Self-consistent Calculation

     iteration #  1     ecut=    60.00 Ry     beta= 0.70
     Davidson diagonalization with overlap
     ethr =  1.00E-02,  avg # of iterations =  6.2

     total cpu time spent up to now is       14.5 secs

     total energy              =   -1387.89669213 Ry
     estimated scf accuracy    <       1.98546041 Ry

     iteration #  2     ecut=    60.00 Ry     beta= 0.70
     Davidson diagonalization with overlap
     ethr =  5.09E-03,  avg # of iterations =  3.2

     total cpu time spent up to now is       25.5 secs

     total energy              =   -1385.96658564 Ry
     estimated scf accuracy    <      56.94276380 Ry

     iteration #  3     ecut=    60.00 Ry     beta= 0.70
     Davidson diagonalization with overlap
     ethr =  5.09E-03,  avg # of iterations =  4.2

     total cpu time spent up to now is       36.2 secs

     total energy              =   -1389.39892811 Ry
     estimated scf accuracy    <       0.66715681 Ry

     iteration #  4     ecut=    60.00 Ry     beta= 0.70
     Davidson diagonalization with overlap
     ethr =  1.71E-03,  avg # of iterations =  1.5

     total cpu time spent up to now is       43.5 secs

     total energy              =   -1389.44272908 Ry
     estimated scf accuracy    <       0.11738739 Ry

     iteration #  5     ecut=    60.00 Ry     beta= 0.70
     Davidson diagonalization with overlap
     ethr =  3.01E-04,  avg # of iterations =  1.4

     total cpu time spent up to now is       50.7 secs

     total energy              =   -1389.44468553 Ry
     estimated scf accuracy    <       0.03313631 Ry

     iteration #  6     ecut=    60.00 Ry     beta= 0.70
     Davidson diagonalization with overlap
     ethr =  8.50E-05,  avg # of iterations =  2.4

     total cpu time spent up to now is       58.9 secs

     total energy              =   -1389.44856125 Ry
     estimated scf accuracy    <       0.00991259 Ry

     iteration #  7     ecut=    60.00 Ry     beta= 0.70
     Davidson diagonalization with overlap
     ethr =  2.54E-05,  avg # of iterations =  3.4

     total cpu time spent up to now is       67.2 secs

     total energy              =   -1389.44983826 Ry
     estimated scf accuracy    <       0.00661385 Ry

     iteration #  8     ecut=    60.00 Ry     beta= 0.70
     Davidson diagonalization with overlap
     ethr =  1.70E-05,  avg # of iterations =  1.4

     total cpu time spent up to now is       74.2 secs

     total energy              =   -1389.45049226 Ry
     estimated scf accuracy    <       0.00056170 Ry

     iteration #  9     ecut=    60.00 Ry     beta= 0.70
     Davidson diagonalization with overlap
     ethr =  1.44E-06,  avg # of iterations =  5.3

     total cpu time spent up to now is       84.3 secs

     total energy              =   -1389.45067967 Ry
     estimated scf accuracy    <       0.00003996 Ry

     iteration # 10     ecut=    60.00 Ry     beta= 0.70
     Davidson diagonalization with overlap
     ethr =  1.02E-07,  avg # of iterations =  3.1

     total cpu time spent up to now is       92.8 secs

     total energy              =   -1389.45068500 Ry
     estimated scf accuracy    <       0.00003687 Ry

     iteration # 11     ecut=    60.00 Ry     beta= 0.70
     Davidson diagonalization with overlap
     ethr =  9.45E-08,  avg # of iterations =  1.0

     total cpu time spent up to now is       99.8 secs

     total energy              =   -1389.45067821 Ry
     estimated scf accuracy    <       0.00004912 Ry

     iteration # 12     ecut=    60.00 Ry     beta= 0.70
     Davidson diagonalization with overlap
     ethr =  9.45E-08,  avg # of iterations =  1.0

     total cpu time spent up to now is      106.6 secs

     total energy              =   -1389.45068193 Ry
     estimated scf accuracy    <       0.00000116 Ry

     iteration # 13     ecut=    60.00 Ry     beta= 0.70
     Davidson diagonalization with overlap
     ethr =  2.99E-09,  avg # of iterations =  2.5

     total cpu time spent up to now is      115.3 secs

     total energy              =   -1389.45068198 Ry
     estimated scf accuracy    <       0.00000044 Ry

     iteration # 14     ecut=    60.00 Ry     beta= 0.70
     Davidson diagonalization with overlap
     ethr =  1.14E-09,  avg # of iterations =  1.5

     total cpu time spent up to now is      122.5 secs

     End of self-consistent calculation

          k = 0.0000 0.0000 0.0000 (  2733 PWs)   bands (ev):

   -92.5202 -52.9107 -52.9107 -52.9107   2.9190   6.6086   6.6086   6.7449
     6.7449   6.7449   7.8702   7.8702   7.8702   9.1113   9.1113   9.4582
     9.4582   9.4582   9.9141   9.9141  17.9095  19.1924  19.1924  19.1924
    19.2923  19.2923  19.2923  20.1780

          k =-0.1000 0.1000-0.1000 (  2737 PWs)   bands (ev):

   -92.5202 -52.9107 -52.9107 -52.9106   3.0585   6.6311   6.6311   6.7126
     6.7496   6.7496   7.8831   7.8970   7.8970   9.0970   9.0970   9.3647
     9.4417   9.4417   9.9124   9.9124  16.6700  18.1779  18.2629  18.2629
    20.0711  20.1437  20.1439  20.4779

          k =-0.2000 0.2000-0.2000 (  2761 PWs)   bands (ev):

   -92.5204 -52.9107 -52.9107 -52.9107   3.4620   6.6487   6.6565   6.6565
     6.8020   6.8020   7.8825   7.9704   7.9704   9.0212   9.0212   9.1396
     9.4255   9.4255   9.9144   9.9144  14.4305  17.3762  17.3762  18.2006
    19.9119  20.1027  20.1027  20.9869

          k =-0.3000 0.3000-0.3000 (  2752 PWs)   bands (ev):

   -92.5203 -52.9106 -52.9106 -52.9104   4.0716   6.6196   6.6453   6.6453
     6.9265   6.9265   7.7787   8.0723   8.0723   8.8517   8.8517   8.9140
     9.4557   9.4557   9.9242   9.9242  12.4854  16.6422  16.6422  18.1998
    19.4973  19.7997  19.7997  22.3470

          k =-0.4000 0.4000-0.4000 (  2752 PWs)   bands (ev):

   -92.5203 -52.9105 -52.9105 -52.9105   4.7230   6.6277   6.6277   6.6947
     7.0565   7.0565   7.5118   8.1816   8.1816   8.6468   8.6468   8.7845
     9.5075   9.5075   9.9347   9.9347  11.0738  16.1457  16.1457  18.1749
    19.2346  19.5873  19.5873  24.1501

          k = 0.5000-0.5000 0.5000 (  2764 PWs)   bands (ev):

   -92.5204 -52.9106 -52.9106 -52.9105   5.0386   6.6204   6.6204   6.8533
     7.1140   7.1140   7.2451   8.2501   8.2501   8.5322   8.5322   8.7443
     9.5324   9.5324   9.9389   9.9389  10.5354  15.9685  15.9685  18.1619
    19.1468  19.5137  19.5137  24.9754

          k = 0.0000 0.2000 0.0000 (  2750 PWs)   bands (ev):

   -92.5203 -52.9108 -52.9107 -52.9107   3.1056   6.5941   6.6792   6.6875
     6.7567   6.7567   7.8012   7.9544   7.9544   9.0901   9.0996   9.3784
     9.4206   9.4206   9.8609   9.9475  17.2899  17.2899  17.5006  17.9400
    19.5697  20.1051  20.9612  20.9612

          k =-0.1000 0.3000-0.1000 (  2753 PWs)   bands (ev):

   -92.5203 -52.9107 -52.9107 -52.9107   3.4235   6.5501   6.6657   6.7209
     6.7692   6.8165   7.7720   8.0338   8.0549   9.0280   9.0631   9.2175
     9.3978   9.4137   9.8202   9.9645  15.1573  16.4259  17.1253  18.1347
    19.2654  20.2570  21.0549  21.0873

          k =-0.2000 0.4000-0.2000 (  2757 PWs)   bands (ev):

   -92.5203 -52.9106 -52.9106 -52.9106   3.9718   6.4835   6.6859   6.7032
     6.8181   6.9584   7.7839   8.0762   8.1731   8.8525   8.9578   8.9939
     9.4296   9.4366   9.8153   9.9753  13.0923  15.7732  16.3841  17.9851
    20.1615  20.2199  20.7988  20.8397

          k =-0.3000 0.5000-0.3000 (  2762 PWs)   bands (ev):

   -92.5204 -52.9106 -52.9106 -52.9106   4.6329   6.4526   6.6749   6.7221
     6.9071   7.0978   7.7337   8.1063   8.2812   8.6210   8.7808   8.8454
     9.4771   9.4915   9.8581   9.9724  11.4575  15.4207  15.6341  17.8483
    20.0485  20.4192  20.4662  21.9225

          k = 0.6000-0.4000 0.6000 (  2768 PWs)   bands (ev):

   -92.5204 -52.9107 -52.9106 -52.9106   5.1039   6.4758   6.6510   6.8165
     6.9407   7.1622   7.5986   8.2006   8.2833   8.5228   8.6218   8.7665
     9.4972   9.5389   9.9312   9.9401  10.5662  15.0768  15.4460  17.8602
    19.7579  20.1186  20.6019  23.6384

          k = 0.5000-0.3000 0.5000 (  2772 PWs)   bands (ev):

   -92.5204 -52.9107 -52.9106 -52.9106   4.9917   6.5045   6.6402   6.7608
     6.9893   7.1004   7.6542   8.1492   8.2991   8.5431   8.6582   8.7791
     9.4632   9.5579   9.8703   9.9834  10.7699  14.8351  15.8712  18.0215
    19.5110  19.8644  20.9482  23.8653

          k = 0.4000-0.2000 0.4000 (  2760 PWs)   bands (ev):

   -92.5203 -52.9107 -52.9106 -52.9105   4.4079   6.5173   6.6438   6.6993
     6.9539   6.9699   7.8176   8.0346   8.2448   8.6919   8.8457   8.8716
     9.4242   9.5152   9.8163   9.9954  11.9594  14.9446  16.6430  18.3348
    19.3616  19.7297  21.3230  22.1694

          k = 0.3000-0.1000 0.3000 (  2763 PWs)   bands (ev):

   -92.5204 -52.9107 -52.9107 -52.9106   3.7645   6.5653   6.6513   6.6999
     6.8134   6.8771   7.8814   7.9463   8.1367   8.9085   9.0017   9.0447
     9.4108   9.4409   9.8172   9.9803  13.7633  15.3517  17.6583  18.7511
    19.3261  19.6823  20.7263  21.3884

          k = 0.2000 0.0000 0.2000 (  2751 PWs)   bands (ev):

   -92.5203 -52.9107 -52.9107 -52.9107   3.2869   6.6372   6.6390   6.6937
     6.7510   6.7893   7.8726   7.8954   8.0165   9.0495   9.0782   9.2489
     9.4129   9.4295   9.8578   9.9522  15.8764  16.0106  18.6959  18.7384
    19.4673  19.6756  20.0608  20.6530

          k = 0.0000 0.4000 0.0000 (  2750 PWs)   bands (ev):

   -92.5203 -52.9107 -52.9106 -52.9106   3.6544   6.4200   6.6295   6.7894
     6.7894   6.8844   7.6635   8.1817   8.1817   9.0111   9.0538   9.2621
     9.3534   9.3534   9.7241   9.9780  15.5004  15.5004  15.8166  17.1347
    18.3732  21.8055  21.8445  21.8445

          k =-0.1000 0.5000-0.1000 (  2749 PWs)   bands (ev):

   -92.5203 -52.9106 -52.9106 -52.9105   4.1276   6.2997   6.6244   6.7856
     6.8052   7.0470   7.6437   8.2878   8.3142   8.8662   9.0014   9.1199
     9.3890   9.3978   9.6822   9.9844  13.6683  14.7777  15.1244  17.3685
    18.4931  21.9199  22.0948  22.3915

          k =-0.2000 0.6000-0.2000 (  2753 PWs)   bands (ev):

   -92.5203 -52.9106 -52.9106 -52.9106   4.7574   6.2198   6.6614   6.7583
     6.8188   7.2147   7.6999   8.3264   8.4283   8.6018   8.8823   8.9764
     9.4338   9.4763   9.7663   9.9882  11.9013  14.3063  14.3785  17.4390
    19.6990  21.5731  21.8491  22.4737

          k = 0.7000-0.3000 0.7000 (  2744 PWs)   bands (ev):

   -92.5202 -52.9106 -52.9105 -52.9104   5.3065   6.2238   6.7235   6.7288
     6.8191   7.3105   7.8022   8.3283   8.3316   8.5420   8.7635   8.8603
     9.4047   9.5754   9.9217   9.9800  10.6725  13.6073  14.4070  17.5046
    21.0817  21.3045  21.4201  22.7847

          k = 0.6000-0.2000 0.6000 (  2754 PWs)   bands (ev):

   -92.5203 -52.9106 -52.9105 -52.9105   5.3686   6.3282   6.6938   6.7282
     6.8471   7.2527   7.9383   8.1465   8.3450   8.6492   8.6727   8.8139
     9.3623   9.5861   9.8852  10.0179  10.5626  13.1722  14.8872  17.6771
    20.6796  20.9974  22.4968  23.7152

          k = 0.5000-0.1000 0.5000 (  2754 PWs)   bands (ev):

   -92.5203 -52.9106 -52.9106 -52.9105   4.9155   6.3941   6.6761   6.6863
     6.9186   7.0749   7.9916   8.0450   8.4183   8.5581   8.8228   8.8566
     9.3452   9.5920   9.7207  10.0416  11.5701  13.1024  15.7305  17.9801
    20.3891  20.6354  21.8808  22.8710

          k = 0.4000 0.0000 0.4000 (  2768 PWs)   bands (ev):

   -92.5204 -52.9107 -52.9106 -52.9106   4.2885   6.4642   6.6663   6.6991
     6.9015   6.9245   7.9478   7.9773   8.3094   8.7152   8.9417   8.9426
     9.3690   9.5272   9.7120  10.0226  13.0403  13.5463  16.7767  18.4227
    19.9926  20.2279  20.7824  21.7272

          k = 0.0000 0.6000 0.0000 (  2758 PWs)   bands (ev):

   -92.5203 -52.9106 -52.9106 -52.9106   4.5240   6.1379   6.5473   6.8333
     6.8333   7.2039   7.5409   8.4353   8.4353   8.8272   9.0010   9.1906
     9.4127   9.4127   9.5748   9.9881  13.5690  13.9312  13.9312  16.9197
    17.7830  23.1442  23.1442  23.9263

          k =-0.1000 0.7000-0.1000 (  2763 PWs)   bands (ev):

   -92.5204 -52.9107 -52.9106 -52.9106   5.0968   6.0280   6.5247   6.8337
     6.8401   7.3938   7.5206   8.4957   8.4968   8.6356   8.9553   9.1196
     9.4229   9.5598   9.6951  10.0121  12.2057  13.1717  13.3974  17.1203
    18.0939  23.2888  23.4039  24.6148

          k = 0.8000-0.2000 0.8000 (  2756 PWs)   bands (ev):

   -92.5203 -52.9106 -52.9106 -52.9105   5.6463   6.0219   6.5623   6.7912
     6.8026   7.5441   7.6122   8.2887   8.5467   8.6337   8.8676   9.0360
     9.3281   9.7197   9.9359  10.1000  10.8994  12.3633  13.3378  17.2558
    19.3964  22.8337  22.9788  24.7501

          k = 0.7000-0.1000 0.7000 (  2759 PWs)   bands (ev):

   -92.5203 -52.9107 -52.9106 -52.9105   5.7255   6.2545   6.6344   6.6960
     6.7585   7.5174   7.8357   8.1056   8.5892   8.7126   8.7868   8.9357
     9.2567   9.6892  10.0534  10.0636  10.5215  11.7761  13.8093  17.4031
    21.1220  22.3460  22.3590  23.9107

          k = 0.6000-0.0000 0.6000 (  2750 PWs)   bands (ev):

   -92.5203 -52.9106 -52.9105 -52.9105   5.4366   6.3337   6.6324   6.7151
     6.8110   7.2941   8.0418   8.0676   8.4580   8.6924   8.7795   8.8750
     9.2657   9.5458   9.8447  10.0685  11.2906  11.7351  14.6767  17.6395
    21.6129  21.7530  22.0950  23.4031

          k = 0.0000 0.8000 0.0000 (  2766 PWs)   bands (ev):

   -92.5204 -52.9107 -52.9106 -52.9106   5.6014   5.9056   6.4443   6.8717
     6.8717   7.3248   7.5999   8.5105   8.5352   8.5352   8.9736   9.1514
     9.4838   9.7692   9.7692  10.0656  11.6851  12.6797  12.6797  16.8311
    17.5402  24.7955  24.7955  26.0912

          k = 0.9000-0.1000 0.9000 (  2768 PWs)   bands (ev):

   -92.5204 -52.9107 -52.9106 -52.9106   5.8486   6.1407   6.4447   6.7849
     6.8636   7.2728   7.7964   8.2286   8.5604   8.6133   8.9397   9.1240
     9.3897   9.9455  10.0030  10.2397  10.9476  11.9110  12.4696  17.0370
    17.9384  24.6517  24.8330  26.3249

          k = 0.8000 0.0000 0.8000 (  2748 PWs)   bands (ev):

   -92.5202 -52.9106 -52.9105 -52.9104   5.8456   6.4288   6.5112   6.5542
     6.8196   7.5347   7.8365   8.0098   8.6274   8.7048   8.8697   9.0643
     9.2648   9.9540  10.0782  10.3377  10.6935  11.0985  12.9150  17.2123
    19.3064  23.6460  24.1010  24.6089

          k = 0.0000-1.0000 0.0000 (  2778 PWs)   bands (ev):

   -92.5205 -52.9108 -52.9107 -52.9107   5.8115   6.3498   6.5405   6.8614
     6.8871   6.8871   7.9250   8.2080   8.5414   8.5414   8.9635   9.1411
     9.4567  10.0734  10.0734  10.3241  10.6896  12.0968  12.0968  16.8082
    17.4774  26.1673  26.1673  26.4345

          k =-0.2000 0.4000 0.0000 (  2759 PWs)   bands (ev):

   -92.5203 -52.9107 -52.9106 -52.9106   3.8180   6.4507   6.6696   6.7404
     6.7827   6.9231   7.7466   8.1070   8.2050   8.9127   9.0214   9.0989
     9.3905   9.4212   9.7541   9.9864  14.3076  14.6770  16.6813  18.2192
    18.9970  20.5317  21.0569  22.0994

          k =-0.3000 0.5000-0.1000 (  2753 PWs)   bands (ev):

   -92.5203 -52.9106 -52.9106 -52.9105   4.4104   6.3650   6.6922   6.7252
     6.8235   7.0578   7.7898   8.1572   8.3392   8.6952   8.9183   8.9535
     9.3839   9.5137   9.7302  10.0058  12.5188  14.0640  15.7915  18.3284
    19.6187  20.3624  21.3109  22.5124

          k = 0.6000-0.4000 0.8000 (  2755 PWs)   bands (ev):

   -92.5203 -52.9106 -52.9106 -52.9105   5.0353   6.3275   6.6863   6.7414
     6.8692   7.1812   7.8437   8.1744   8.3903   8.5229   8.7779   8.8430
     9.3910   9.5795   9.8122  10.0090  11.0661  13.8461  15.0267  18.2199
    19.5990  21.2621  21.8322  22.3744

          k = 0.5000-0.3000 0.7000 (  2764 PWs)   bands (ev):

   -92.5204 -52.9107 -52.9106 -52.9105   5.3313   6.3305   6.6719   6.7906
     6.8638   7.2361   7.8644   8.1926   8.2911   8.5771   8.6804   8.7918
     9.3897   9.6201   9.8992   9.9941  10.4520  13.8385  14.6807  18.1788
    19.5175  21.6203  21.8474  23.5747

          k =-0.2000 0.6000 0.0000 (  2758 PWs)   bands (ev):

   -92.5203 -52.9107 -52.9106 -52.9106   4.6500   6.1758   6.6081   6.7836
     6.8276   7.2069   7.6375   8.3789   8.4461   8.6924   8.9558   9.0644
     9.3678   9.5160   9.6598   9.9989  12.8245  13.4043  14.4436  17.7588
    18.4725  21.5564  22.9323  23.7160

          k = 0.7000-0.3000 0.9000 (  2760 PWs)   bands (ev):

   -92.5203 -52.9107 -52.9106 -52.9105   5.2603   6.1100   6.6323   6.7401
     6.8467   7.3585   7.7144   8.4198   8.4441   8.5454   8.8741   8.9852
     9.3147   9.6501   9.7933  10.0354  11.4360  12.8469  13.7618  18.0186
    19.5574  21.0064  23.2881  24.0027

          k = 0.6000-0.2000 0.8000 (  2757 PWs)   bands (ev):

   -92.5203 -52.9107 -52.9106 -52.9105   5.6385   6.1585   6.6710   6.6887
     6.8467   7.4218   7.8772   8.1899   8.4904   8.6072   8.8098   8.8935
     9.2513   9.7455   9.9589  10.1166  10.4311  12.5205  13.5917  18.1684
    20.4687  21.2815  23.0457  23.5969

          k = 0.5000-0.1000 0.7000 (  2752 PWs)   bands (ev):

   -92.5203 -52.9106 -52.9106 -52.9105   5.5016   6.2355   6.6512   6.7244
     6.8385   7.3316   7.9667   8.1599   8.4369   8.6208   8.8235   8.8628
     9.2467   9.6668   9.8627  10.0706  10.8568  12.2666  14.0811  18.4461
    20.1035  21.6516  22.8523  23.2009

          k = 0.4000 0.0000 0.6000 (  2753 PWs)   bands (ev):

   -92.5203 -52.9107 -52.9106 -52.9105   4.9919   6.2732   6.6822   6.7282
     6.8390   7.1769   7.8684   8.2245   8.4544   8.5551   8.8754   8.9015
     9.3080   9.6402   9.6830  10.0439  11.9510  12.5237  14.9004  18.8471
    19.5454  20.5446  22.2230  23.6280

          k = 0.8000-0.2000 1.0000 (  2763 PWs)   bands (ev):

   -92.5204 -52.9107 -52.9106 -52.9106   5.6527   5.9458   6.5033   6.7761
     6.8809   7.4879   7.5822   8.3611   8.5448   8.6164   8.9260   9.0979
     9.3309   9.7871   9.8585  10.0964  11.4685  12.3276  12.7435  17.5507
    18.2181  22.8162  24.6668  25.7054

          k = 0.7000-0.1000 0.9000 (  2758 PWs)   bands (ev):

   -92.5203 -52.9107 -52.9106 -52.9105   5.8913   6.1393   6.5436   6.6424
     6.8829   7.6195   7.7067   8.1232   8.5777   8.7099   8.8719   9.0289
     9.2004   9.8830  10.0672  10.3337  10.6642  11.5855  12.6063  17.8917
    19.4120  22.1855  23.9181  24.8201

          k = 0.6000 0.0000 0.8000 (  2755 PWs)   bands (ev):

   -92.5203 -52.9107 -52.9105 -52.9105   5.8190   6.2500   6.5836   6.6400
     6.8497   7.5648   7.8902   8.0556   8.6122   8.6885   8.8521   8.9259
     9.1529   9.8156  10.0309  10.1376  10.9386  11.1340  13.1875  18.1409
    21.1916  21.4171  22.3641  24.0194

          k =-0.2000-1.0000 0.0000 (  2766 PWs)   bands (ev):

   -92.5204 -52.9107 -52.9105 -52.9105   5.8528   6.4245   6.4945   6.5449
     6.9026   7.3219   7.9721   8.0048   8.5467   8.6884   8.9195   9.1046
     9.3013   9.9866  10.1164  10.4946  10.5798  11.8130  11.9996  17.4935
    18.1476  23.8194  24.9231  25.8754

          k = 0.6000-0.2000 1.0000 (  2759 PWs)   bands (ev):

   -92.5203 -52.9107 -52.9106 -52.9105   5.7525   6.0645   6.6249   6.6568
     6.8957   7.4999   7.8119   8.2248   8.5554   8.5818   8.8660   8.9678
     9.1725   9.8059   9.9450  10.1429  11.1072  11.6893  12.9572  19.2352
    19.6877  20.5548  23.4317  24.3078

          k = 0.5000-0.1000 0.9000 (  2744 PWs)   bands (ev):

   -92.5202 -52.9106 -52.9105 -52.9105   5.9359   6.1022   6.5914   6.6293
     6.9179   7.5748   7.9330   8.0687   8.5900   8.6468   8.8491   8.9197
     9.1205   9.8609  10.1043  10.3253  10.5590  11.5359  12.5368  19.5007
    20.0233  21.4673  21.5792  24.7299

          k =-0.4000-1.0000 0.0000 (  2748 PWs)   bands (ev):

   -92.5202 -52.9107 -52.9105 -52.9105   5.9789   6.1938   6.5442   6.5746
     6.9396   7.7388   7.7764   8.0328   8.5621   8.8048   8.8705   8.8828
     9.1230   9.9112  10.1865  10.3861  10.8361  11.2937  11.8842  19.1531
    19.8498  21.3383  22.2188  25.5433

     the Fermi energy is    10.0796 ev

!    total energy              =   -1389.45068196 Ry

     total all-electron energy =    -43178.950463 Ry
     estimated scf accuracy    <       0.00000006 Ry
     smearing contrib. (-TS)   =      -0.00526319 Ry
     internal energy E=F+TS    =   -1389.44541878 Ry

     The total energy is F=E-TS. E is the sum of the following terms:
     one-electron contribution =    -304.91541451 Ry
     hartree contribution      =     186.84057260 Ry
     xc contribution           =    -102.59644002 Ry
     ewald contribution        =    -303.16133176 Ry
     one-center paw contrib.   =    -865.61280509 Ry

     convergence has been achieved in  14 iterations

     Writing output data file ././cunipt.save/

     init_run     :      3.75s CPU      3.84s WALL (       1 calls)
     electrons    :    116.92s CPU    118.40s WALL (       1 calls)

     Called by init_run:
     wfcinit      :      2.62s CPU      2.65s WALL (       1 calls)
     potinit      :      0.35s CPU      0.36s WALL (       1 calls)
     hinit0       :      0.70s CPU      0.71s WALL (       1 calls)

     Called by electrons:
     c_bands      :     96.78s CPU     96.90s WALL (      14 calls)
     sum_band     :     14.46s CPU     15.21s WALL (      14 calls)
     v_of_rho     :      0.29s CPU      0.29s WALL (      15 calls)
     newd         :      0.90s CPU      1.54s WALL (      15 calls)
     PAW_pot      :      4.83s CPU      4.85s WALL (      15 calls)
     mix_rho      :      0.04s CPU      0.05s WALL (      14 calls)

     Called by c_bands:
     init_us_2    :      1.14s CPU      1.15s WALL (    1363 calls)
     cegterg      :     92.76s CPU     92.87s WALL (     658 calls)

     Called by *egterg:
     cdiaghg      :      1.81s CPU      1.82s WALL (    2452 calls)
     h_psi        :     54.43s CPU     54.54s WALL (    2499 calls)
     s_psi        :      8.57s CPU      8.58s WALL (    2499 calls)
     g_psi        :      0.33s CPU      0.33s WALL (    1794 calls)

     Called by h_psi:
     h_psi:calbec :      7.91s CPU      7.92s WALL (    2499 calls)
     vloc_psi     :     37.68s CPU     37.77s WALL (    2499 calls)
     add_vuspsi   :      8.62s CPU      8.63s WALL (    2499 calls)

     General routines
     calbec       :     11.13s CPU     11.13s WALL (    3157 calls)
     fft          :      0.13s CPU      0.13s WALL (     165 calls)
     ffts         :      0.01s CPU      0.01s WALL (      14 calls)
     fftw         :     41.01s CPU     41.10s WALL (  107862 calls)

     Parallel routines

     PWSCF        :   2m 0.91s CPU   2m 2.52s WALL


   This run was terminated on:  20:56:25  13Sep2024            

=------------------------------------------------------------------------------=
   JOB DONE.
=------------------------------------------------------------------------------=
