
     Program PWSCF v.6.7MaX starts on 13Sep2024 at 22: 1:15 

     This program is part of the open-source Quantum ESPRESSO suite
     for quantum simulation of materials; please cite
         "P. Giannozzi et al., J. Phys.:Condens. Matter 21 395502 (2009);
         "P. Giannozzi et al., J. Phys.:Condens. Matter 29 465901 (2017);
          URL http://www.quantum-espresso.org", 
     in publications or presentations arising from this work. More details at
     http://www.quantum-espresso.org/quote

     Parallel version (MPI), running on     1 processors

     MPI processes distributed on     1 nodes
     Waiting for input...
     Reading input from standard input

     Current dimensions of program PWSCF are:
     Max number of different atomic species (ntypx) = 10
     Max number of k-points (npk) =  40000
     Max angular momentum in pseudopotentials (lmaxx) =  3
     file Cu.upf: wavefunction(s)  4S 3D renormalized
     file Ni.upf: wavefunction(s)  3P 3D renormalized
     file Pt.upf: wavefunction(s)  6S 5D renormalized

     Subspace diagonalization in iterative solution of the eigenvalue problem:
     a serial algorithm will be used


     G-vector sticks info
     --------------------
     sticks:   dense  smooth     PW     G-vecs:    dense   smooth      PW
     Sum         967     967    301                20179    20179    3383



     bravais-lattice index     =            2
     lattice parameter (alat)  =      10.8900  a.u.
     unit-cell volume          =     322.8670 (a.u.)^3
     number of atoms/cell      =            3
     number of atomic types    =            3
     number of electrons       =        39.00
     number of Kohn-Sham states=           28
     kinetic-energy cutoff     =      60.0000  Ry
     charge density cutoff     =     240.0000  Ry
     scf convergence threshold =      1.0E-06
     mixing beta               =       0.6000
     number of iterations used =            8  plain     mixing
     Exchange-correlation= SLA  PW   PBX  PBC
                           (   1   4   3   4   0   0   0)

     celldm(1)=  10.890000  celldm(2)=   0.000000  celldm(3)=   0.000000
     celldm(4)=   0.000000  celldm(5)=   0.000000  celldm(6)=   0.000000

     crystal axes: (cart. coord. in units of alat)
               a(1) = (  -0.500000   0.000000   0.500000 )  
               a(2) = (   0.000000   0.500000   0.500000 )  
               a(3) = (  -0.500000   0.500000   0.000000 )  

     reciprocal axes: (cart. coord. in units 2 pi/alat)
               b(1) = ( -1.000000 -1.000000  1.000000 )  
               b(2) = (  1.000000  1.000000  1.000000 )  
               b(3) = ( -1.000000  1.000000 -1.000000 )  


     PseudoPot. # 1 for Cu read from file:
     ././Cu.upf
     MD5 check sum: cfffd1f38ee05704b3e17f46f1730a6f
     Pseudo is Projector augmented-wave + core cor, Zval = 11.0
     Generated using &quot;atomic&quot; code by A. Dal Corso  v.6.3
     Shape of augmentation charge: PSQ
     Using radial grid of 1199 points,  6 beta functions with: 
                l(1) =   0
                l(2) =   0
                l(3) =   1
                l(4) =   1
                l(5) =   2
                l(6) =   2
     Q(r) pseudized with 0 coefficients 


     PseudoPot. # 2 for Ni read from file:
     ././Ni.upf
     MD5 check sum: 6e86b733589c3ad8389697b807d86aa7
     Pseudo is Projector augmented-wave + core cor, Zval = 18.0
     Generated using &quot;atomic&quot; code by A. Dal Corso  v.6.3
     Shape of augmentation charge: PSQ
     Using radial grid of 1195 points,  6 beta functions with: 
                l(1) =   0
                l(2) =   0
                l(3) =   1
                l(4) =   1
                l(5) =   2
                l(6) =   2
     Q(r) pseudized with 0 coefficients 


     PseudoPot. # 3 for Pt read from file:
     ././Pt.upf
     MD5 check sum: c5224e9cd7a5e36e81f2def9f50bb494
     Pseudo is Projector augmented-wave + core cor, Zval = 10.0
     Generated using &quot;atomic&quot; code by A. Dal Corso  v.6.3
     Shape of augmentation charge: PSQ
     Using radial grid of 1277 points,  6 beta functions with: 
                l(1) =   0
                l(2) =   0
                l(3) =   1
                l(4) =   1
                l(5) =   2
                l(6) =   2
     Q(r) pseudized with 0 coefficients 


     atomic species   valence    mass     pseudopotential
        Cu            11.00    63.54600     Cu( 1.00)
        Ni            18.00    58.69300     Ni( 1.00)
        Pt            10.00   195.08000     Pt( 1.00)

     24 Sym. Ops. (no inversion) found


                                    s                        frac. trans.

      isym =  1     identity                                     

 cryst.   s( 1) = (     1          0          0      )
                  (     0          1          0      )
                  (     0          0          1      )

 cart.    s( 1) = (  1.0000000  0.0000000  0.0000000 )
                  (  0.0000000  1.0000000  0.0000000 )
                  (  0.0000000  0.0000000  1.0000000 )


      isym =  2     180 deg rotation - cart. axis [0,0,1]        

 cryst.   s( 2) = (     0          1         -1      )
                  (     1          0         -1      )
                  (     0          0         -1      )

 cart.    s( 2) = ( -1.0000000  0.0000000  0.0000000 )
                  (  0.0000000 -1.0000000  0.0000000 )
                  (  0.0000000  0.0000000  1.0000000 )


      isym =  3     180 deg rotation - cart. axis [0,1,0]        

 cryst.   s( 3) = (    -1          0          0      )
                  (    -1          0          1      )
                  (    -1          1          0      )

 cart.    s( 3) = ( -1.0000000  0.0000000  0.0000000 )
                  (  0.0000000  1.0000000  0.0000000 )
                  (  0.0000000  0.0000000 -1.0000000 )


      isym =  4     180 deg rotation - cart. axis [1,0,0]        

 cryst.   s( 4) = (     0         -1          1      )
                  (     0         -1          0      )
                  (     1         -1          0      )

 cart.    s( 4) = (  1.0000000  0.0000000  0.0000000 )
                  (  0.0000000 -1.0000000  0.0000000 )
                  (  0.0000000  0.0000000 -1.0000000 )


      isym =  5     120 deg rotation - cart. axis [-1,-1,-1]     

 cryst.   s( 5) = (    -1          0          1      )
                  (    -1          1          0      )
                  (    -1          0          0      )

 cart.    s( 5) = (  0.0000000  1.0000000  0.0000000 )
                  (  0.0000000  0.0000000  1.0000000 )
                  (  1.0000000  0.0000000  0.0000000 )


      isym =  6     120 deg rotation - cart. axis [-1,1,1]       

 cryst.   s( 6) = (     0          1          0      )
                  (     0          0          1      )
                  (     1          0          0      )

 cart.    s( 6) = (  0.0000000 -1.0000000  0.0000000 )
                  (  0.0000000  0.0000000  1.0000000 )
                  ( -1.0000000  0.0000000  0.0000000 )


      isym =  7     120 deg rotation - cart. axis [1,1,-1]       

 cryst.   s( 7) = (     1          0         -1      )
                  (     0          0         -1      )
                  (     0          1         -1      )

 cart.    s( 7) = (  0.0000000  1.0000000  0.0000000 )
                  (  0.0000000  0.0000000 -1.0000000 )
                  ( -1.0000000  0.0000000  0.0000000 )


      isym =  8     120 deg rotation - cart. axis [1,-1,1]       

 cryst.   s( 8) = (     0         -1          0      )
                  (     1         -1          0      )
                  (     0         -1          1      )

 cart.    s( 8) = (  0.0000000 -1.0000000  0.0000000 )
                  (  0.0000000  0.0000000 -1.0000000 )
                  (  1.0000000  0.0000000  0.0000000 )


      isym =  9     120 deg rotation - cart. axis [1,1,1]        

 cryst.   s( 9) = (     0          0         -1      )
                  (     0          1         -1      )
                  (     1          0         -1      )

 cart.    s( 9) = (  0.0000000  0.0000000  1.0000000 )
                  (  1.0000000  0.0000000  0.0000000 )
                  (  0.0000000  1.0000000  0.0000000 )


      isym = 10     120 deg rotation - cart. axis [-1,1,-1]      

 cryst.   s(10) = (    -1          1          0      )
                  (    -1          0          0      )
                  (    -1          0          1      )

 cart.    s(10) = (  0.0000000  0.0000000  1.0000000 )
                  ( -1.0000000  0.0000000  0.0000000 )
                  (  0.0000000 -1.0000000  0.0000000 )


      isym = 11     120 deg rotation - cart. axis [1,-1,-1]      

 cryst.   s(11) = (     0          0          1      )
                  (     1          0          0      )
                  (     0          1          0      )

 cart.    s(11) = (  0.0000000  0.0000000 -1.0000000 )
                  ( -1.0000000  0.0000000  0.0000000 )
                  (  0.0000000  1.0000000  0.0000000 )


      isym = 12     120 deg rotation - cart. axis [-1,-1,1]      

 cryst.   s(12) = (     1         -1          0      )
                  (     0         -1          1      )
                  (     0         -1          0      )

 cart.    s(12) = (  0.0000000  0.0000000 -1.0000000 )
                  (  1.0000000  0.0000000  0.0000000 )
                  (  0.0000000 -1.0000000  0.0000000 )


      isym = 13     inv. 180 deg rotation - cart. axis [1,1,0]   

 cryst.   s(13) = (     0          1          0      )
                  (     1          0          0      )
                  (     0          0          1      )

 cart.    s(13) = (  0.0000000 -1.0000000  0.0000000 )
                  ( -1.0000000  0.0000000  0.0000000 )
                  (  0.0000000  0.0000000  1.0000000 )


      isym = 14     inv. 180 deg rotation - cart. axis [1,-1,0]  

 cryst.   s(14) = (     1          0         -1      )
                  (     0          1         -1      )
                  (     0          0         -1      )

 cart.    s(14) = (  0.0000000  1.0000000  0.0000000 )
                  (  1.0000000  0.0000000  0.0000000 )
                  (  0.0000000  0.0000000  1.0000000 )


      isym = 15     inv.  90 deg rotation - cart. axis [0,0,-1]  

 cryst.   s(15) = (     0         -1          0      )
                  (     0         -1          1      )
                  (     1         -1          0      )

 cart.    s(15) = (  0.0000000 -1.0000000  0.0000000 )
                  (  1.0000000  0.0000000  0.0000000 )
                  (  0.0000000  0.0000000 -1.0000000 )


      isym = 16     inv.  90 deg rotation - cart. axis [0,0,1]   

 cryst.   s(16) = (    -1          0          1      )
                  (    -1          0          0      )
                  (    -1          1          0      )

 cart.    s(16) = (  0.0000000  1.0000000  0.0000000 )
                  ( -1.0000000  0.0000000  0.0000000 )
                  (  0.0000000  0.0000000 -1.0000000 )


      isym = 17     inv. 180 deg rotation - cart. axis [1,0,1]   

 cryst.   s(17) = (     1          0          0      )
                  (     0          0          1      )
                  (     0          1          0      )

 cart.    s(17) = (  0.0000000  0.0000000 -1.0000000 )
                  (  0.0000000  1.0000000  0.0000000 )
                  ( -1.0000000  0.0000000  0.0000000 )


      isym = 18     inv. 180 deg rotation - cart. axis [-1,0,1]  

 cryst.   s(18) = (    -1          0          0      )
                  (    -1          1          0      )
                  (    -1          0          1      )

 cart.    s(18) = (  0.0000000  0.0000000  1.0000000 )
                  (  0.0000000  1.0000000  0.0000000 )
                  (  1.0000000  0.0000000  0.0000000 )


      isym = 19     inv.  90 deg rotation - cart. axis [0,1,0]   

 cryst.   s(19) = (     0         -1          1      )
                  (     1         -1          0      )
                  (     0         -1          0      )

 cart.    s(19) = (  0.0000000  0.0000000 -1.0000000 )
                  (  0.0000000 -1.0000000  0.0000000 )
                  (  1.0000000  0.0000000  0.0000000 )


      isym = 20     inv.  90 deg rotation - cart. axis [0,-1,0]  

 cryst.   s(20) = (     0          1         -1      )
                  (     0          0         -1      )
                  (     1          0         -1      )

 cart.    s(20) = (  0.0000000  0.0000000  1.0000000 )
                  (  0.0000000 -1.0000000  0.0000000 )
                  ( -1.0000000  0.0000000  0.0000000 )


      isym = 21     inv. 180 deg rotation - cart. axis [0,1,1]   

 cryst.   s(21) = (     1         -1          0      )
                  (     0         -1          0      )
                  (     0         -1          1      )

 cart.    s(21) = (  1.0000000  0.0000000  0.0000000 )
                  (  0.0000000  0.0000000 -1.0000000 )
                  (  0.0000000 -1.0000000  0.0000000 )


      isym = 22     inv. 180 deg rotation - cart. axis [0,1,-1]  

 cryst.   s(22) = (     0          0          1      )
                  (     0          1          0      )
                  (     1          0          0      )

 cart.    s(22) = (  1.0000000  0.0000000  0.0000000 )
                  (  0.0000000  0.0000000  1.0000000 )
                  (  0.0000000  1.0000000  0.0000000 )


      isym = 23     inv.  90 deg rotation - cart. axis [-1,0,0]  

 cryst.   s(23) = (     0          0         -1      )
                  (     1          0         -1      )
                  (     0          1         -1      )

 cart.    s(23) = ( -1.0000000  0.0000000  0.0000000 )
                  (  0.0000000  0.0000000 -1.0000000 )
                  (  0.0000000  1.0000000  0.0000000 )


      isym = 24     inv.  90 deg rotation - cart. axis [1,0,0]   

 cryst.   s(24) = (    -1          1          0      )
                  (    -1          0          1      )
                  (    -1          0          0      )

 cart.    s(24) = ( -1.0000000  0.0000000  0.0000000 )
                  (  0.0000000  0.0000000  1.0000000 )
                  (  0.0000000 -1.0000000  0.0000000 )


     point group T_d (-43m) 
     there are  5 classes
     the character table:

       E     8C3   3C2   6S4   6s_d 
A_1    1.00  1.00  1.00  1.00  1.00
A_2    1.00  1.00  1.00 -1.00 -1.00
E      2.00 -1.00  2.00  0.00  0.00
T_1    3.00  0.00 -1.00  1.00 -1.00
T_2    3.00  0.00 -1.00 -1.00  1.00

     the symmetry operations in each class and the name of the first element:

     E        1
          identity                                               
     8C3      5    7    8    6   12    9   10   11
          120 deg rotation - cart. axis [-1,-1,-1]               
     3C2      2    3    4
          180 deg rotation - cart. axis [0,0,1]                  
     6S4     15   16   20   19   23   24
          inv.  90 deg rotation - cart. axis [0,0,-1]            
     6s_d    13   14   17   18   21   22
          inv. 180 deg rotation - cart. axis [1,1,0]             

   Cartesian axes

     site n.     atom                  positions (alat units)
         1           Cu  tau(   1) = (   0.0000000   0.0000000   0.0000000  )
         2           Ni  tau(   2) = (   0.5000000   0.5000000   0.5000000  )
         3           Pt  tau(   3) = (   0.2500000   0.2500000   0.2500000  )

   Crystallographic axes

     site n.     atom                  positions (cryst. coord.)
         1           Cu  tau(   1) = (  0.0000000  0.0000000  0.0000000  )
         2           Ni  tau(   2) = ( -0.5000000  1.5000000 -0.5000000  )
         3           Pt  tau(   3) = ( -0.2500000  0.7500000 -0.2500000  )

     number of k points=    47  Gaussian smearing, width (Ry)=  0.0050
                       cart. coord. in units 2pi/alat
        k(    1) = (   0.0000000   0.0000000   0.0000000), wk =   0.0020000
        k(    2) = (  -0.1000000   0.1000000  -0.1000000), wk =   0.0160000
        k(    3) = (  -0.2000000   0.2000000  -0.2000000), wk =   0.0160000
        k(    4) = (  -0.3000000   0.3000000  -0.3000000), wk =   0.0160000
        k(    5) = (  -0.4000000   0.4000000  -0.4000000), wk =   0.0160000
        k(    6) = (   0.5000000  -0.5000000   0.5000000), wk =   0.0080000
        k(    7) = (   0.0000000   0.2000000   0.0000000), wk =   0.0120000
        k(    8) = (  -0.1000000   0.3000000  -0.1000000), wk =   0.0480000
        k(    9) = (  -0.2000000   0.4000000  -0.2000000), wk =   0.0480000
        k(   10) = (  -0.3000000   0.5000000  -0.3000000), wk =   0.0480000
        k(   11) = (   0.6000000  -0.4000000   0.6000000), wk =   0.0480000
        k(   12) = (   0.5000000  -0.3000000   0.5000000), wk =   0.0480000
        k(   13) = (   0.4000000  -0.2000000   0.4000000), wk =   0.0480000
        k(   14) = (   0.3000000  -0.1000000   0.3000000), wk =   0.0480000
        k(   15) = (   0.2000000   0.0000000   0.2000000), wk =   0.0240000
        k(   16) = (   0.0000000   0.4000000   0.0000000), wk =   0.0120000
        k(   17) = (  -0.1000000   0.5000000  -0.1000000), wk =   0.0480000
        k(   18) = (  -0.2000000   0.6000000  -0.2000000), wk =   0.0480000
        k(   19) = (   0.7000000  -0.3000000   0.7000000), wk =   0.0480000
        k(   20) = (   0.6000000  -0.2000000   0.6000000), wk =   0.0480000
        k(   21) = (   0.5000000  -0.1000000   0.5000000), wk =   0.0480000
        k(   22) = (   0.4000000   0.0000000   0.4000000), wk =   0.0240000
        k(   23) = (   0.0000000   0.6000000   0.0000000), wk =   0.0120000
        k(   24) = (  -0.1000000   0.7000000  -0.1000000), wk =   0.0480000
        k(   25) = (   0.8000000  -0.2000000   0.8000000), wk =   0.0480000
        k(   26) = (   0.7000000  -0.1000000   0.7000000), wk =   0.0480000
        k(   27) = (   0.6000000  -0.0000000   0.6000000), wk =   0.0240000
        k(   28) = (   0.0000000   0.8000000   0.0000000), wk =   0.0120000
        k(   29) = (   0.9000000  -0.1000000   0.9000000), wk =   0.0480000
        k(   30) = (   0.8000000   0.0000000   0.8000000), wk =   0.0240000
        k(   31) = (   0.0000000  -1.0000000   0.0000000), wk =   0.0060000
        k(   32) = (  -0.2000000   0.4000000   0.0000000), wk =   0.0480000
        k(   33) = (  -0.3000000   0.5000000  -0.1000000), wk =   0.0960000
        k(   34) = (   0.6000000  -0.4000000   0.8000000), wk =   0.0960000
        k(   35) = (   0.5000000  -0.3000000   0.7000000), wk =   0.0480000
        k(   36) = (  -0.2000000   0.6000000   0.0000000), wk =   0.0480000
        k(   37) = (   0.7000000  -0.3000000   0.9000000), wk =   0.0960000
        k(   38) = (   0.6000000  -0.2000000   0.8000000), wk =   0.0960000
        k(   39) = (   0.5000000  -0.1000000   0.7000000), wk =   0.0960000
        k(   40) = (   0.4000000   0.0000000   0.6000000), wk =   0.0480000
        k(   41) = (   0.8000000  -0.2000000   1.0000000), wk =   0.0480000
        k(   42) = (   0.7000000  -0.1000000   0.9000000), wk =   0.0960000
        k(   43) = (   0.6000000   0.0000000   0.8000000), wk =   0.0480000
        k(   44) = (  -0.2000000  -1.0000000   0.0000000), wk =   0.0240000
        k(   45) = (   0.6000000  -0.2000000   1.0000000), wk =   0.0480000
        k(   46) = (   0.5000000  -0.1000000   0.9000000), wk =   0.0480000
        k(   47) = (  -0.4000000  -1.0000000   0.0000000), wk =   0.0240000

                       cryst. coord.
        k(    1) = (   0.0000000   0.0000000   0.0000000), wk =   0.0020000
        k(    2) = (   0.0000000   0.0000000   0.1000000), wk =   0.0160000
        k(    3) = (   0.0000000   0.0000000   0.2000000), wk =   0.0160000
        k(    4) = (   0.0000000   0.0000000   0.3000000), wk =   0.0160000
        k(    5) = (   0.0000000   0.0000000   0.4000000), wk =   0.0160000
        k(    6) = (   0.0000000   0.0000000  -0.5000000), wk =   0.0080000
        k(    7) = (   0.0000000   0.1000000   0.1000000), wk =   0.0120000
        k(    8) = (   0.0000000   0.1000000   0.2000000), wk =   0.0480000
        k(    9) = (   0.0000000   0.1000000   0.3000000), wk =   0.0480000
        k(   10) = (   0.0000000   0.1000000   0.4000000), wk =   0.0480000
        k(   11) = (   0.0000000   0.1000000  -0.5000000), wk =   0.0480000
        k(   12) = (   0.0000000   0.1000000  -0.4000000), wk =   0.0480000
        k(   13) = (   0.0000000   0.1000000  -0.3000000), wk =   0.0480000
        k(   14) = (   0.0000000   0.1000000  -0.2000000), wk =   0.0480000
        k(   15) = (   0.0000000   0.1000000  -0.1000000), wk =   0.0240000
        k(   16) = (   0.0000000   0.2000000   0.2000000), wk =   0.0120000
        k(   17) = (   0.0000000   0.2000000   0.3000000), wk =   0.0480000
        k(   18) = (   0.0000000   0.2000000   0.4000000), wk =   0.0480000
        k(   19) = (   0.0000000   0.2000000  -0.5000000), wk =   0.0480000
        k(   20) = (   0.0000000   0.2000000  -0.4000000), wk =   0.0480000
        k(   21) = (   0.0000000   0.2000000  -0.3000000), wk =   0.0480000
        k(   22) = (   0.0000000   0.2000000  -0.2000000), wk =   0.0240000
        k(   23) = (   0.0000000   0.3000000   0.3000000), wk =   0.0120000
        k(   24) = (   0.0000000   0.3000000   0.4000000), wk =   0.0480000
        k(   25) = (   0.0000000   0.3000000  -0.5000000), wk =   0.0480000
        k(   26) = (   0.0000000   0.3000000  -0.4000000), wk =   0.0480000
        k(   27) = (   0.0000000   0.3000000  -0.3000000), wk =   0.0240000
        k(   28) = (   0.0000000   0.4000000   0.4000000), wk =   0.0120000
        k(   29) = (   0.0000000   0.4000000  -0.5000000), wk =   0.0480000
        k(   30) = (   0.0000000   0.4000000  -0.4000000), wk =   0.0240000
        k(   31) = (   0.0000000  -0.5000000  -0.5000000), wk =   0.0060000
        k(   32) = (   0.1000000   0.2000000   0.3000000), wk =   0.0480000
        k(   33) = (   0.1000000   0.2000000   0.4000000), wk =   0.0960000
        k(   34) = (   0.1000000   0.2000000  -0.5000000), wk =   0.0960000
        k(   35) = (   0.1000000   0.2000000  -0.4000000), wk =   0.0480000
        k(   36) = (   0.1000000   0.3000000   0.4000000), wk =   0.0480000
        k(   37) = (   0.1000000   0.3000000  -0.5000000), wk =   0.0960000
        k(   38) = (   0.1000000   0.3000000  -0.4000000), wk =   0.0960000
        k(   39) = (   0.1000000   0.3000000  -0.3000000), wk =   0.0960000
        k(   40) = (   0.1000000   0.3000000  -0.2000000), wk =   0.0480000
        k(   41) = (   0.1000000   0.4000000  -0.5000000), wk =   0.0480000
        k(   42) = (   0.1000000   0.4000000  -0.4000000), wk =   0.0960000
        k(   43) = (   0.1000000   0.4000000  -0.3000000), wk =   0.0480000
        k(   44) = (   0.1000000  -0.5000000  -0.4000000), wk =   0.0240000
        k(   45) = (   0.2000000   0.4000000  -0.4000000), wk =   0.0480000
        k(   46) = (   0.2000000   0.4000000  -0.3000000), wk =   0.0480000
        k(   47) = (   0.2000000  -0.5000000  -0.3000000), wk =   0.0240000

     Dense  grid:    20179 G-vectors     FFT dimensions: (  40,  40,  40)

     Dynamical RAM for                 wfc:       1.08 MB

     Dynamical RAM for     wfc (w. buffer):      51.97 MB

     Dynamical RAM for           str. fact:       0.92 MB

     Dynamical RAM for           local pot:       0.00 MB

     Dynamical RAM for          nlocal pot:       2.09 MB

     Dynamical RAM for                qrad:       3.73 MB

     Dynamical RAM for          rho,v,vnew:       2.39 MB

     Dynamical RAM for               rhoin:       0.80 MB

     Dynamical RAM for            rho*nmix:       4.93 MB

     Dynamical RAM for           G-vectors:       1.31 MB

     Dynamical RAM for          h,s,v(r/c):       0.14 MB

     Dynamical RAM for          <psi|beta>:       0.02 MB

     Dynamical RAM for                 psi:       2.17 MB

     Dynamical RAM for                hpsi:       2.17 MB

     Dynamical RAM for                spsi:       2.17 MB

     Dynamical RAM for      wfcinit/wfcrot:       2.18 MB

     Dynamical RAM for           addusdens:      57.58 MB

     Estimated static dynamical RAM per process >      71.80 MB

     Estimated max dynamical RAM per process >     129.38 MB

     Check: negative core charge=   -0.000002

     Initial potential from superposition of free atoms

     starting charge   38.99935, renormalised to   39.00000
     Starting wfcs are   28 randomized atomic wfcs
     Checking if some PAW data can be deallocated... 

     total cpu time spent up to now is        3.6 secs

     Self-consistent Calculation

     iteration #  1     ecut=    60.00 Ry     beta= 0.60
     Davidson diagonalization with overlap
     ethr =  1.00E-02,  avg # of iterations =  5.9

     total cpu time spent up to now is       13.1 secs

     total energy              =   -1388.10642233 Ry
     estimated scf accuracy    <       1.89786847 Ry

     iteration #  2     ecut=    60.00 Ry     beta= 0.60
     Davidson diagonalization with overlap
     ethr =  4.87E-03,  avg # of iterations =  2.8

     total cpu time spent up to now is       22.9 secs

     total energy              =   -1386.28992666 Ry
     estimated scf accuracy    <      46.61080284 Ry

     iteration #  3     ecut=    60.00 Ry     beta= 0.60
     Davidson diagonalization with overlap
     ethr =  4.87E-03,  avg # of iterations =  3.5

     total cpu time spent up to now is       31.9 secs

     total energy              =   -1389.41261561 Ry
     estimated scf accuracy    <       0.46031681 Ry

     iteration #  4     ecut=    60.00 Ry     beta= 0.60
     Davidson diagonalization with overlap
     ethr =  1.18E-03,  avg # of iterations =  2.0

     total cpu time spent up to now is       39.4 secs

     total energy              =   -1389.45331232 Ry
     estimated scf accuracy    <       0.04453231 Ry

     iteration #  5     ecut=    60.00 Ry     beta= 0.60
     Davidson diagonalization with overlap
     ethr =  1.14E-04,  avg # of iterations =  2.5

     total cpu time spent up to now is       47.0 secs

     total energy              =   -1389.45321491 Ry
     estimated scf accuracy    <       0.02394472 Ry

     iteration #  6     ecut=    60.00 Ry     beta= 0.60
     Davidson diagonalization with overlap
     ethr =  6.14E-05,  avg # of iterations =  2.3

     total cpu time spent up to now is       54.6 secs

     total energy              =   -1389.45690548 Ry
     estimated scf accuracy    <       0.01185954 Ry

     iteration #  7     ecut=    60.00 Ry     beta= 0.60
     Davidson diagonalization with overlap
     ethr =  3.04E-05,  avg # of iterations =  1.6

     total cpu time spent up to now is       61.3 secs

     total energy              =   -1389.45823384 Ry
     estimated scf accuracy    <       0.00268324 Ry

     iteration #  8     ecut=    60.00 Ry     beta= 0.60
     Davidson diagonalization with overlap
     ethr =  6.88E-06,  avg # of iterations =  3.3

     total cpu time spent up to now is       68.8 secs

     total energy              =   -1389.45859995 Ry
     estimated scf accuracy    <       0.00076585 Ry

     iteration #  9     ecut=    60.00 Ry     beta= 0.60
     Davidson diagonalization with overlap
     ethr =  1.96E-06,  avg # of iterations =  3.4

     total cpu time spent up to now is       76.2 secs

     total energy              =   -1389.45869196 Ry
     estimated scf accuracy    <       0.00000616 Ry

     iteration # 10     ecut=    60.00 Ry     beta= 0.60
     Davidson diagonalization with overlap
     ethr =  1.58E-08,  avg # of iterations =  7.5

     total cpu time spent up to now is       92.7 secs

     total energy              =   -1389.45872412 Ry
     estimated scf accuracy    <       0.00000852 Ry

     iteration # 11     ecut=    60.00 Ry     beta= 0.60
     Davidson diagonalization with overlap
     ethr =  1.58E-08,  avg # of iterations =  2.0

     total cpu time spent up to now is      100.0 secs

     total energy              =   -1389.45871701 Ry
     estimated scf accuracy    <       0.00001530 Ry

     iteration # 12     ecut=    60.00 Ry     beta= 0.60
     Davidson diagonalization with overlap
     ethr =  1.58E-08,  avg # of iterations =  2.1

     total cpu time spent up to now is      108.2 secs

     total energy              =   -1389.45871958 Ry
     estimated scf accuracy    <       0.00000121 Ry

     iteration # 13     ecut=    60.00 Ry     beta= 0.60
     Davidson diagonalization with overlap
     ethr =  3.10E-09,  avg # of iterations =  2.3

     total cpu time spent up to now is      115.9 secs

     End of self-consistent calculation

          k = 0.0000 0.0000 0.0000 (  2637 PWs)   bands (ev):

   -91.2367 -51.6278 -51.6278 -51.6278   3.7381   7.5505   7.5505   7.7405
     7.7405   7.7405   8.9927   8.9927   8.9927  10.4174  10.4174  10.7748
    10.7748  10.7748  11.3091  11.3091  20.0192  21.1491  21.1491  21.1491
    21.2253  21.2253  21.2253  22.0917

     occupation numbers 
     1.0000   1.0000   1.0000   1.0000   1.0000   1.0000   1.0000   1.0000
     1.0000   1.0000   1.0000   1.0000   1.0000   1.0000   1.0000   1.0000
     1.0000   1.0000   0.9992   0.9992   0.0000   0.0000   0.0000   0.0000
     0.0000   0.0000   0.0000   0.0000

          k =-0.1000 0.1000-0.1000 (  2556 PWs)   bands (ev):

   -91.2360 -51.6275 -51.6274 -51.6274   3.8883   7.5778   7.5778   7.7059
     7.7428   7.7428   9.0073   9.0238   9.0238  10.3983  10.3983  10.6668
    10.7589  10.7589  11.3057  11.3057  18.5282  20.1487  20.1487  20.2319
    21.8931  22.1314  22.1319  22.4445

     occupation numbers 
     1.0000   1.0000   1.0000   1.0000   1.0000   1.0000   1.0000   1.0000
     1.0000   1.0000   1.0000   1.0000   1.0000   1.0000   1.0000   1.0000
     1.0000   1.0000   0.9994   0.9994   0.0000   0.0000   0.0000   0.0000
     0.0000   0.0000   0.0000   0.0000

          k =-0.2000 0.2000-0.2000 (  2553 PWs)   bands (ev):

   -91.2359 -51.6277 -51.6275 -51.6275   4.3204   7.6196   7.6196   7.6391
     7.7864   7.7864   9.0050   9.1086   9.1086  10.3037  10.3037  10.4084
    10.7472  10.7472  11.3059  11.3059  16.1460  19.1963  19.1963  20.1901
    21.7995  21.9809  21.9809  23.0683

     occupation numbers 
     1.0000   1.0000   1.0000   1.0000   1.0000   1.0000   1.0000   1.0000
     1.0000   1.0000   1.0000   1.0000   1.0000   1.0000   1.0000   1.0000
     1.0000   1.0000   0.9994   0.9994   0.0000   0.0000   0.0000   0.0000
     0.0000   0.0000   0.0000   0.0000

          k =-0.3000 0.3000-0.3000 (  2539 PWs)   bands (ev):

   -91.2358 -51.6276 -51.6275 -51.6275   4.9705   7.6140   7.6152   7.6152
     7.9165   7.9165   8.8813   9.2249   9.2249  10.1044  10.1044  10.1568
    10.7854  10.7854  11.3170  11.3170  14.0831  18.3971  18.3971  20.0511
    21.5995  21.6862  21.6862  24.4714

     occupation numbers 
     1.0000   1.0000   1.0000   1.0000   1.0000   1.0000   1.0000   1.0000
     1.0000   1.0000   1.0000   1.0000   1.0000   1.0000   1.0000   1.0000
     1.0000   1.0000   0.9987   0.9987   0.0000   0.0000   0.0000   0.0000
     0.0000   0.0000   0.0000   0.0000

          k =-0.4000 0.4000-0.4000 (  2515 PWs)   bands (ev):

   -91.2356 -51.6276 -51.6274 -51.6274   5.6600   7.5967   7.5967   7.7046
     8.0613   8.0613   8.5767   9.3460   9.3460   9.8713   9.8713  10.0240
    10.8440  10.8440  11.3304  11.3304  12.5803  17.8518  17.8518  19.9152
    21.4761  21.4878  21.4878  26.3559

     occupation numbers 
     1.0000   1.0000   1.0000   1.0000   1.0000   1.0000   1.0000   1.0000
     1.0000   1.0000   1.0000   1.0000   1.0000   1.0000   1.0000   1.0000
     1.0000   1.0000   0.9968   0.9968   0.0000   0.0000   0.0000   0.0000
     0.0000   0.0000   0.0000   0.0000

          k = 0.5000-0.5000 0.5000 (  2512 PWs)   bands (ev):

   -91.2355 -51.6277 -51.6274 -51.6274   5.9905   7.5885   7.5885   7.8833
     8.1263   8.1263   8.2823   9.4189   9.4189   9.7446   9.7446   9.9882
    10.8716  10.8716  11.3360  11.3360  12.0024  17.6564  17.6564  19.8625
    21.4197  21.4197  21.4352  26.9921

     occupation numbers 
     1.0000   1.0000   1.0000   1.0000   1.0000   1.0000   1.0000   1.0000
     1.0000   1.0000   1.0000   1.0000   1.0000   1.0000   1.0000   1.0000
     1.0000   1.0000   0.9955   0.9955   0.0000   0.0000   0.0000   0.0000
     0.0000   0.0000   0.0000   0.0000

          k = 0.0000 0.2000 0.0000 (  2557 PWs)   bands (ev):

   -91.2360 -51.6275 -51.6274 -51.6274   3.9389   7.5420   7.6300   7.6692
     7.7531   7.7531   8.9155   9.0888   9.0888  10.3937  10.3962  10.6945
    10.7289  10.7289  11.2460  11.3461  19.1038  19.1038  19.5627  19.8828
    21.2673  22.1306  22.7688  22.7690

     occupation numbers 
     1.0000   1.0000   1.0000   1.0000   1.0000   1.0000   1.0000   1.0000
     1.0000   1.0000   1.0000   1.0000   1.0000   1.0000   1.0000   1.0000
     1.0000   1.0000   1.0000   0.9918   0.0000   0.0000   0.0000   0.0000
     0.0000   0.0000   0.0000   0.0000

          k =-0.1000 0.3000-0.1000 (  2561 PWs)   bands (ev):

   -91.2360 -51.6277 -51.6275 -51.6275   4.2794   7.5169   7.6258   7.6936
     7.7630   7.8024   8.8841   9.1792   9.2040  10.3182  10.3455  10.5048
    10.7049  10.7344  11.1970  11.3643  16.8996  18.1749  19.0705  20.0619
    21.0071  22.2611  22.9317  22.9646

     occupation numbers 
     1.0000   1.0000   1.0000   1.0000   1.0000   1.0000   1.0000   1.0000
     1.0000   1.0000   1.0000   1.0000   1.0000   1.0000   1.0000   1.0000
     1.0000   1.0000   1.0000   0.9784   0.0000   0.0000   0.0000   0.0000
     0.0000   0.0000   0.0000   0.0000

          k =-0.2000 0.4000-0.2000 (  2538 PWs)   bands (ev):

   -91.2358 -51.6276 -51.6275 -51.6274   4.8649   7.4543   7.6541   7.6821
     7.8043   7.9524   8.8977   9.2254   9.3389  10.1090  10.2145  10.2539
    10.7556  10.7594  11.1903  11.3753  14.7167  17.4661  18.2220  19.7959
    22.0849  22.2494  22.7428  22.7916

     occupation numbers 
     1.0000   1.0000   1.0000   1.0000   1.0000   1.0000   1.0000   1.0000
     1.0000   1.0000   1.0000   1.0000   1.0000   1.0000   1.0000   1.0000
     1.0000   1.0000   1.0000   0.9634   0.0000   0.0000   0.0000   0.0000
     0.0000   0.0000   0.0000   0.0000

          k =-0.3000 0.5000-0.3000 (  2531 PWs)   bands (ev):

   -91.2357 -51.6277 -51.6275 -51.6275   5.5658   7.4219   7.6510   7.7076
     7.8960   8.1080   8.8340   9.2589   9.4587   9.8431  10.0145  10.0927
    10.8127  10.8217  11.2402  11.3716  12.9821  17.0768  17.3812  19.6279
    22.1161  22.3951  22.4525  23.9351

     occupation numbers 
     1.0000   1.0000   1.0000   1.0000   1.0000   1.0000   1.0000   1.0000
     1.0000   1.0000   1.0000   1.0000   1.0000   1.0000   1.0000   1.0000
     1.0000   1.0000   1.0000   0.9693   0.0000   0.0000   0.0000   0.0000
     0.0000   0.0000   0.0000   0.0000

          k = 0.6000-0.4000 0.6000 (  2529 PWs)   bands (ev):

   -91.2357 -51.6277 -51.6275 -51.6275   6.0593   7.4422   7.6241   7.8291
     7.9300   8.1797   8.6786   9.3654   9.4572   9.7326   9.8408  10.0121
    10.8312  10.8796  11.3257  11.3336  12.0318  16.7664  17.0970  19.6161
    21.8866  22.0498  22.6257  25.7130

     occupation numbers 
     1.0000   1.0000   1.0000   1.0000   1.0000   1.0000   1.0000   1.0000
     1.0000   1.0000   1.0000   1.0000   1.0000   1.0000   1.0000   1.0000
     1.0000   1.0000   0.9976   0.9961   0.0000   0.0000   0.0000   0.0000
     0.0000   0.0000   0.0000   0.0000

          k = 0.5000-0.3000 0.5000 (  2530 PWs)   bands (ev):

   -91.2357 -51.6277 -51.6275 -51.6275   5.9419   7.4755   7.6122   7.7670
     7.9833   8.1078   8.7404   9.3115   9.4738   9.7558   9.8804  10.0224
    10.7964  10.8984  11.2536  11.3856  12.2501  16.5063  17.5552  19.7583
    21.6599  21.7845  22.9729  26.0017

     occupation numbers 
     1.0000   1.0000   1.0000   1.0000   1.0000   1.0000   1.0000   1.0000
     1.0000   1.0000   1.0000   1.0000   1.0000   1.0000   1.0000   1.0000
     1.0000   1.0000   1.0000   0.9428   0.0000   0.0000   0.0000   0.0000
     0.0000   0.0000   0.0000   0.0000

          k = 0.4000-0.2000 0.4000 (  2520 PWs)   bands (ev):

   -91.2356 -51.6276 -51.6274 -51.6274   5.3277   7.4967   7.6164   7.6834
     7.9421   7.9642   8.9283   9.1845   9.4144   9.9231  10.0919  10.1139
    10.7558  10.8468  11.1924  11.3985  13.5164  16.6361  18.3926  20.0651
    21.5027  21.6351  23.3214  24.2654

     occupation numbers 
     1.0000   1.0000   1.0000   1.0000   1.0000   1.0000   1.0000   1.0000
     1.0000   1.0000   1.0000   1.0000   1.0000   1.0000   1.0000   1.0000
     1.0000   1.0000   1.0000   0.9051   0.0000   0.0000   0.0000   0.0000
     0.0000   0.0000   0.0000   0.0000

          k = 0.3000-0.1000 0.3000 (  2553 PWs)   bands (ev):

   -91.2359 -51.6277 -51.6275 -51.6275   4.6436   7.5473   7.6205   7.6746
     7.7900   7.8662   9.0061   9.0835   9.2939  10.1742  10.2735  10.3023
    10.7401  10.7582  11.1942  11.3807  15.4274  17.0924  19.4951  20.5391
    21.3693  21.5911  22.7658  23.2538

     occupation numbers 
     1.0000   1.0000   1.0000   1.0000   1.0000   1.0000   1.0000   1.0000
     1.0000   1.0000   1.0000   1.0000   1.0000   1.0000   1.0000   1.0000
     1.0000   1.0000   1.0000   0.9536   0.0000   0.0000   0.0000   0.0000
     0.0000   0.0000   0.0000   0.0000

          k = 0.2000 0.0000 0.2000 (  2561 PWs)   bands (ev):

   -91.2360 -51.6276 -51.6275 -51.6275   4.1331   7.5904   7.6155   7.6636
     7.7367   7.7817   8.9963   9.0236   9.1588  10.3417  10.3694  10.5365
    10.7215  10.7540  11.2420  11.3498  17.6401  17.8359  20.6269  20.7905
    21.3608  21.4159  22.1432  22.3930

     occupation numbers 
     1.0000   1.0000   1.0000   1.0000   1.0000   1.0000   1.0000   1.0000
     1.0000   1.0000   1.0000   1.0000   1.0000   1.0000   1.0000   1.0000
     1.0000   1.0000   1.0000   0.9899   0.0000   0.0000   0.0000   0.0000
     0.0000   0.0000   0.0000   0.0000

          k = 0.0000 0.4000 0.0000 (  2573 PWs)   bands (ev):

   -91.2361 -51.6278 -51.6276 -51.6276   4.5266   7.3808   7.5721   7.7882
     7.7882   7.8614   8.7639   9.3494   9.3494  10.3042  10.3266  10.5843
    10.6431  10.6431  11.0845  11.3805  17.1779  17.1779  17.6588  19.1897
    20.0328  23.6913  23.6913  23.9272

     occupation numbers 
     1.0000   1.0000   1.0000   1.0000   1.0000   1.0000   1.0000   1.0000
     1.0000   1.0000   1.0000   1.0000   1.0000   1.0000   1.0000   1.0000
     1.0000   1.0000   1.0000   0.9541   0.0000   0.0000   0.0000   0.0000
     0.0000   0.0000   0.0000   0.0000

          k =-0.1000 0.5000-0.1000 (  2533 PWs)   bands (ev):

   -91.2357 -51.6276 -51.6275 -51.6274   5.0323   7.2527   7.5623   7.7806
     7.8053   8.0474   8.7450   9.4703   9.5016  10.1298  10.2618  10.4052
    10.6880  10.7131  11.0342  11.3865  15.2954  16.3934  16.8684  19.3334
    20.2614  23.8418  24.0139  24.5675

     occupation numbers 
     1.0000   1.0000   1.0000   1.0000   1.0000   1.0000   1.0000   1.0000
     1.0000   1.0000   1.0000   1.0000   1.0000   1.0000   1.0000   1.0000
     1.0000   1.0000   1.0000   0.9407   0.0000   0.0000   0.0000   0.0000
     0.0000   0.0000   0.0000   0.0000

          k =-0.2000 0.6000-0.2000 (  2532 PWs)   bands (ev):

   -91.2357 -51.6277 -51.6275 -51.6274   5.7001   7.1678   7.6029   7.7480
     7.8240   8.2380   8.8107   9.5080   9.6302   9.8199  10.1226  10.2447
    10.7491  10.8051  11.1296  11.3878  13.4274  15.9531  15.9882  19.3145
    21.6001  23.5890  23.8231  24.6349

     occupation numbers 
     1.0000   1.0000   1.0000   1.0000   1.0000   1.0000   1.0000   1.0000
     1.0000   1.0000   1.0000   1.0000   1.0000   1.0000   1.0000   1.0000
     1.0000   1.0000   1.0000   0.9373   0.0000   0.0000   0.0000   0.0000
     0.0000   0.0000   0.0000   0.0000

          k = 0.7000-0.3000 0.7000 (  2521 PWs)   bands (ev):

   -91.2356 -51.6277 -51.6274 -51.6274   6.2726   7.1736   7.6780   7.7080
     7.8372   8.3457   8.9233   9.5029   9.5098   9.7525   9.9932  10.1192
    10.7226  10.9129  11.3114  11.3714  12.1295  15.2341  15.9760  19.3531
    23.1190  23.3072  23.4030  24.9413

     occupation numbers 
     1.0000   1.0000   1.0000   1.0000   1.0000   1.0000   1.0000   1.0000
     1.0000   1.0000   1.0000   1.0000   1.0000   1.0000   1.0000   1.0000
     1.0000   1.0000   0.9991   0.9695   0.0000   0.0000   0.0000   0.0000
     0.0000   0.0000   0.0000   0.0000

          k = 0.6000-0.2000 0.6000 (  2549 PWs)   bands (ev):

   -91.2359 -51.6279 -51.6276 -51.6275   6.3309   7.2898   7.6748   7.7239
     7.8306   8.2762   9.0681   9.3103   9.5222   9.8666   9.8928  10.0641
    10.6814  10.9262  11.2587  11.4243  12.0185  14.7685  16.4940  19.5065
    22.7583  22.9677  24.5150  25.8916

     occupation numbers 
     1.0000   1.0000   1.0000   1.0000   1.0000   1.0000   1.0000   1.0000
     1.0000   1.0000   1.0000   1.0000   1.0000   1.0000   1.0000   1.0000
     1.0000   1.0000   1.0000   0.7806   0.0000   0.0000   0.0000   0.0000
     0.0000   0.0000   0.0000   0.0000

          k = 0.5000-0.1000 0.5000 (  2538 PWs)   bands (ev):

   -91.2358 -51.6277 -51.6275 -51.6275   5.8614   7.3661   7.6561   7.6738
     7.9014   8.0725   9.1315   9.1992   9.6079   9.7655  10.0589  10.1005
    10.6690  10.9336  11.0753  11.4513  13.0835  14.7063  17.4083  19.7898
    22.4623  22.5927  23.9215  24.8477

     occupation numbers 
     1.0000   1.0000   1.0000   1.0000   1.0000   1.0000   1.0000   1.0000
     1.0000   1.0000   1.0000   1.0000   1.0000   1.0000   1.0000   1.0000
     1.0000   1.0000   1.0000   0.5845   0.0000   0.0000   0.0000   0.0000
     0.0000   0.0000   0.0000   0.0000

          k = 0.4000 0.0000 0.4000 (  2533 PWs)   bands (ev):

   -91.2357 -51.6276 -51.6275 -51.6274   5.2014   7.4409   7.6451   7.6779
     7.8786   7.9134   9.0852   9.1214   9.4837   9.9503  10.1890  10.1981
    10.6981  10.8528  11.0737  11.4287  14.6273  15.2073  18.5394  20.2036
    22.0535  22.1845  22.8250  23.6130

     occupation numbers 
     1.0000   1.0000   1.0000   1.0000   1.0000   1.0000   1.0000   1.0000
     1.0000   1.0000   1.0000   1.0000   1.0000   1.0000   1.0000   1.0000
     1.0000   1.0000   1.0000   0.7524   0.0000   0.0000   0.0000   0.0000
     0.0000   0.0000   0.0000   0.0000

          k = 0.0000 0.6000 0.0000 (  2526 PWs)   bands (ev):

   -91.2357 -51.6277 -51.6273 -51.6273   5.4557   7.0758   7.4711   7.8364
     7.8364   8.2229   8.6346   9.6421   9.6421  10.0913  10.2628  10.5127
    10.6986  10.6986  10.9109  11.3913  15.2482  15.4737  15.4737  18.9857
    19.4839  25.1033  25.1033  26.1566

     occupation numbers 
     1.0000   1.0000   1.0000   1.0000   1.0000   1.0000   1.0000   1.0000
     1.0000   1.0000   1.0000   1.0000   1.0000   1.0000   1.0000   1.0000
     1.0000   1.0000   1.0000   0.9279   0.0000   0.0000   0.0000   0.0000
     0.0000   0.0000   0.0000   0.0000

          k =-0.1000 0.7000-0.1000 (  2532 PWs)   bands (ev):

   -91.2357 -51.6277 -51.6275 -51.6274   6.0628   6.9569   7.4435   7.8356
     7.8478   8.4392   8.6169   9.7077   9.7097   9.8661  10.2126  10.4230
    10.7276  10.8752  11.0391  11.4159  13.7376  14.7298  14.8843  19.1115
    19.8912  25.3349  25.4335  26.8753

     occupation numbers 
     1.0000   1.0000   1.0000   1.0000   1.0000   1.0000   1.0000   1.0000
     1.0000   1.0000   1.0000   1.0000   1.0000   1.0000   1.0000   1.0000
     1.0000   1.0000   1.0000   0.8289   0.0000   0.0000   0.0000   0.0000
     0.0000   0.0000   0.0000   0.0000

          k = 0.8000-0.2000 0.8000 (  2528 PWs)   bands (ev):

   -91.2357 -51.6277 -51.6275 -51.6274   6.6255   6.9600   7.4832   7.7992
     7.8127   8.6104   8.7191   9.4627   9.7580   9.8623  10.1146  10.3266
    10.6269  11.0592  11.3246  11.5031  12.3312  13.9014  14.8084  19.1724
    21.3082  24.9289  25.0219  26.9546

     occupation numbers 
     1.0000   1.0000   1.0000   1.0000   1.0000   1.0000   1.0000   1.0000
     1.0000   1.0000   1.0000   1.0000   1.0000   1.0000   1.0000   1.0000
     1.0000   1.0000   0.9978   0.1937   0.0000   0.0000   0.0000   0.0000
     0.0000   0.0000   0.0000   0.0000

          k = 0.7000-0.1000 0.7000 (  2543 PWs)   bands (ev):

   -91.2358 -51.6278 -51.6275 -51.6275   6.6771   7.2254   7.5813   7.7126
     7.7489   8.5751   8.9653   9.2612   9.7975   9.9413  10.0235  10.2088
    10.5550  11.0177  11.4379  11.4652  11.9627  13.2909  15.3200  19.2917
    23.1144  24.3805  24.4386  26.0259

     occupation numbers 
     1.0000   1.0000   1.0000   1.0000   1.0000   1.0000   1.0000   1.0000
     1.0000   1.0000   1.0000   1.0000   1.0000   1.0000   1.0000   1.0000
     1.0000   1.0000   0.6882   0.4695   0.0000   0.0000   0.0000   0.0000
     0.0000   0.0000   0.0000   0.0000

          k = 0.6000-0.0000 0.6000 (  2536 PWs)   bands (ev):

   -91.2357 -51.6277 -51.6275 -51.6275   6.3945   7.3047   7.6294   7.7004
     7.7783   8.3185   9.1917   9.2250   9.6605   9.9037  10.0079  10.1282
    10.5755  10.8746  11.2095  11.4828  12.7569  13.2758  16.2661  19.4991
    23.6068  23.8311  24.1628  25.4519

     occupation numbers 
     1.0000   1.0000   1.0000   1.0000   1.0000   1.0000   1.0000   1.0000
     1.0000   1.0000   1.0000   1.0000   1.0000   1.0000   1.0000   1.0000
     1.0000   1.0000   1.0000   0.3293   0.0000   0.0000   0.0000   0.0000
     0.0000   0.0000   0.0000   0.0000

          k = 0.0000 0.8000 0.0000 (  2518 PWs)   bands (ev):

   -91.2356 -51.6278 -51.6273 -51.6273   6.5944   6.8248   7.3547   7.8792
     7.8792   8.4104   8.6728   9.7226   9.7527   9.7527  10.2391  10.4664
    10.8085  11.1131  11.1131  11.4767  13.2330  14.0880  14.0880  18.9098
    19.2724  26.9105  26.9105  28.4260

     occupation numbers 
     1.0000   1.0000   1.0000   1.0000   1.0000   1.0000   1.0000   1.0000
     1.0000   1.0000   1.0000   1.0000   1.0000   1.0000   1.0000   1.0000
     1.0000   1.0000   1.0000   0.3767   0.0000   0.0000   0.0000   0.0000
     0.0000   0.0000   0.0000   0.0000

          k = 0.9000-0.1000 0.9000 (  2522 PWs)   bands (ev):

   -91.2356 -51.6278 -51.6274 -51.6274   6.7621   7.1423   7.3693   7.8066
     7.8694   8.3501   8.8976   9.3941   9.7775   9.8420  10.2034  10.4338
    10.6967  11.3308  11.4019  11.6658  12.4179  13.2898  13.8410  19.0438
    19.7545  26.7640  27.0198  28.5810

     occupation numbers 
     1.0000   1.0000   1.0000   1.0000   1.0000   1.0000   1.0000   1.0000
     1.0000   1.0000   1.0000   1.0000   1.0000   1.0000   1.0000   1.0000
     1.0000   0.9967   0.8926   0.0000   0.0000   0.0000   0.0000   0.0000
     0.0000   0.0000   0.0000   0.0000

          k = 0.8000 0.0000 0.8000 (  2530 PWs)   bands (ev):

   -91.2357 -51.6278 -51.6274 -51.6274   6.7669   7.3925   7.4432   7.6136
     7.8187   8.6336   8.9403   9.1462   9.8468   9.9431  10.1238  10.3667
    10.5541  11.3450  11.4951  11.7135  12.1540  12.4971  14.3332  19.1430
    21.2247  25.7137  26.2827  26.7488

     occupation numbers 
     1.0000   1.0000   1.0000   1.0000   1.0000   1.0000   1.0000   1.0000
     1.0000   1.0000   1.0000   1.0000   1.0000   1.0000   1.0000   1.0000
     1.0000   0.9923   0.2428   0.0000   0.0000   0.0000   0.0000   0.0000
     0.0000   0.0000   0.0000   0.0000

          k = 0.0000-1.0000 0.0000 (  2498 PWs)   bands (ev):

   -91.2354 -51.6278 -51.6272 -51.6272   6.7193   7.2458   7.6017   7.8965
     7.8965   7.9169   9.0419   9.3749   9.7567   9.7567  10.2329  10.4524
    10.7788  11.4901  11.4901  11.7566  12.1680  13.4118  13.4118  18.8937
    19.2204  28.4502  28.4784  28.4784

     occupation numbers 
     1.0000   1.0000   1.0000   1.0000   1.0000   1.0000   1.0000   1.0000
     1.0000   1.0000   1.0000   1.0000   1.0000   1.0000   1.0000   1.0000
     1.0000   0.2767   0.2767   0.0000   0.0000   0.0000   0.0000   0.0000
     0.0000   0.0000   0.0000   0.0000

          k =-0.2000 0.4000 0.0000 (  2552 PWs)   bands (ev):

   -91.2359 -51.6277 -51.6275 -51.6275   4.7011   7.4176   7.6232   7.7269
     7.7728   7.9121   8.8579   9.2649   9.3727  10.1813  10.2889  10.3721
    10.7116  10.7329  11.1204  11.3881  15.9726  16.3867  18.4781  20.2319
    20.7001  22.4871  23.0711  24.0643

     occupation numbers 
     1.0000   1.0000   1.0000   1.0000   1.0000   1.0000   1.0000   1.0000
     1.0000   1.0000   1.0000   1.0000   1.0000   1.0000   1.0000   1.0000
     1.0000   1.0000   1.0000   0.9366   0.0000   0.0000   0.0000   0.0000
     0.0000   0.0000   0.0000   0.0000

          k =-0.3000 0.5000-0.1000 (  2535 PWs)   bands (ev):

   -91.2357 -51.6277 -51.6275 -51.6274   5.3313   7.3278   7.6569   7.7115
     7.8099   8.0603   8.9090   9.3203   9.5223   9.9274  10.1638  10.2120
    10.7091  10.8398  11.0924  11.4091  14.0912  15.7125  17.5109  20.1756
    21.5281  22.3685  23.3106  24.5683

     occupation numbers 
     1.0000   1.0000   1.0000   1.0000   1.0000   1.0000   1.0000   1.0000
     1.0000   1.0000   1.0000   1.0000   1.0000   1.0000   1.0000   1.0000
     1.0000   1.0000   1.0000   0.8622   0.0000   0.0000   0.0000   0.0000
     0.0000   0.0000   0.0000   0.0000

          k = 0.6000-0.4000 0.8000 (  2523 PWs)   bands (ev):

   -91.2356 -51.6277 -51.6274 -51.6274   5.9886   7.2874   7.6665   7.7240
     7.8589   8.1985   8.9662   9.3336   9.5788   9.7295  10.0087  10.0931
    10.7138  10.9211  11.1830  11.4122  12.5535  15.4731  16.6745  20.0093
    21.6416  23.2573  23.8163  24.5185

     occupation numbers 
     1.0000   1.0000   1.0000   1.0000   1.0000   1.0000   1.0000   1.0000
     1.0000   1.0000   1.0000   1.0000   1.0000   1.0000   1.0000   1.0000
     1.0000   1.0000   1.0000   0.8476   0.0000   0.0000   0.0000   0.0000
     0.0000   0.0000   0.0000   0.0000

          k = 0.5000-0.3000 0.7000 (  2532 PWs)   bands (ev):

   -91.2357 -51.6278 -51.6275 -51.6274   6.2951   7.2878   7.6535   7.7793
     7.8591   8.2609   8.9815   9.3568   9.4654   9.7864   9.9055  10.0408
    10.7111  10.9670  11.2798  11.3941  11.9039  15.4733  16.2857  19.9520
    21.5855  23.5934  23.9292  25.7457

     occupation numbers 
     1.0000   1.0000   1.0000   1.0000   1.0000   1.0000   1.0000   1.0000
     1.0000   1.0000   1.0000   1.0000   1.0000   1.0000   1.0000   1.0000
     1.0000   1.0000   0.9999   0.9197   0.0000   0.0000   0.0000   0.0000
     0.0000   0.0000   0.0000   0.0000

          k =-0.2000 0.6000 0.0000 (  2546 PWs)   bands (ev):

   -91.2358 -51.6278 -51.6275 -51.6275   5.5877   7.1187   7.5406   7.7823
     7.8287   8.2277   8.7422   9.5762   9.6500   9.9262  10.2097  10.3430
    10.6776  10.8304  11.0096  11.4010  14.3921  14.9823  16.0769  19.7879
    20.2056  23.5639  24.9001  25.9396

     occupation numbers 
     1.0000   1.0000   1.0000   1.0000   1.0000   1.0000   1.0000   1.0000
     1.0000   1.0000   1.0000   1.0000   1.0000   1.0000   1.0000   1.0000
     1.0000   1.0000   1.0000   0.8960   0.0000   0.0000   0.0000   0.0000
     0.0000   0.0000   0.0000   0.0000

          k = 0.7000-0.3000 0.9000 (  2528 PWs)   bands (ev):

   -91.2357 -51.6277 -51.6275 -51.6274   6.2285   7.0490   7.5653   7.7426
     7.8514   8.3992   8.8306   9.6147   9.6438   9.7556  10.1183  10.2553
    10.6193  10.9907  11.1589  11.4387  12.9154  14.4058  15.3259  19.9325
    21.4431  23.0477  25.2819  26.2282

     occupation numbers 
     1.0000   1.0000   1.0000   1.0000   1.0000   1.0000   1.0000   1.0000
     1.0000   1.0000   1.0000   1.0000   1.0000   1.0000   1.0000   1.0000
     1.0000   1.0000   1.0000   0.6827   0.0000   0.0000   0.0000   0.0000
     0.0000   0.0000   0.0000   0.0000

          k = 0.6000-0.2000 0.8000 (  2527 PWs)   bands (ev):

   -91.2357 -51.6278 -51.6275 -51.6273   6.6082   7.1057   7.6165   7.6943
     7.8535   8.4702   9.0109   9.3551   9.6823   9.8190  10.0535  10.1518
    10.5539  11.0999  11.3425  11.5131  11.8660  14.0797  15.1182  20.0444
    22.4905  23.2826  25.0653  25.6749

     occupation numbers 
     1.0000   1.0000   1.0000   1.0000   1.0000   1.0000   1.0000   1.0000
     1.0000   1.0000   1.0000   1.0000   1.0000   1.0000   1.0000   1.0000
     1.0000   1.0000   0.9933   0.1421   0.0000   0.0000   0.0000   0.0000
     0.0000   0.0000   0.0000   0.0000

          k = 0.5000-0.1000 0.7000 (  2527 PWs)   bands (ev):

   -91.2357 -51.6277 -51.6275 -51.6274   6.4658   7.1907   7.6391   7.7029
     7.8291   8.3652   9.1118   9.3213   9.6304   9.8287  10.0622  10.1142
    10.5529  11.0153  11.2285  11.4817  12.3126  13.8111  15.6551  20.2968
    22.1408  23.6626  24.8920  25.2406

     occupation numbers 
     1.0000   1.0000   1.0000   1.0000   1.0000   1.0000   1.0000   1.0000
     1.0000   1.0000   1.0000   1.0000   1.0000   1.0000   1.0000   1.0000
     1.0000   1.0000   1.0000   0.3377   0.0000   0.0000   0.0000   0.0000
     0.0000   0.0000   0.0000   0.0000

          k = 0.4000 0.0000 0.6000 (  2530 PWs)   bands (ev):

   -91.2357 -51.6277 -51.6275 -51.6274   5.9431   7.2308   7.6539   7.7192
     7.8207   8.1905   9.0014   9.3962   9.6564   9.7590  10.1166  10.1509
    10.6237  10.9888  11.0289  11.4522  13.4608  14.1021  16.5461  20.6541
    21.5666  22.5407  24.2449  25.6747

     occupation numbers 
     1.0000   1.0000   1.0000   1.0000   1.0000   1.0000   1.0000   1.0000
     1.0000   1.0000   1.0000   1.0000   1.0000   1.0000   1.0000   1.0000
     1.0000   1.0000   1.0000   0.5774   0.0000   0.0000   0.0000   0.0000
     0.0000   0.0000   0.0000   0.0000

          k = 0.8000-0.2000 1.0000 (  2531 PWs)   bands (ev):

   -91.2357 -51.6278 -51.6275 -51.6274   6.6437   6.8694   7.4180   7.7871
     7.8889   8.5827   8.6549   9.5467   9.7589   9.8470  10.1836  10.3979
    10.6273  11.1408  11.2296  11.5064  12.9584  13.7792  14.2072  19.6001
    19.9785  24.8980  26.7437  27.8524

     occupation numbers 
     1.0000   1.0000   1.0000   1.0000   1.0000   1.0000   1.0000   1.0000
     1.0000   1.0000   1.0000   1.0000   1.0000   1.0000   1.0000   1.0000
     1.0000   1.0000   1.0000   0.1755   0.0000   0.0000   0.0000   0.0000
     0.0000   0.0000   0.0000   0.0000

          k = 0.7000-0.1000 0.9000 (  2531 PWs)   bands (ev):

   -91.2357 -51.6278 -51.6275 -51.6274   6.8218   7.1233   7.4586   7.6768
     7.8909   8.7259   8.7959   9.2755   9.7886   9.9469  10.1263  10.3068
    10.4933  11.2608  11.4773  11.7655  12.0592  13.0498  14.0388  19.8373
    21.3155  24.2621  26.0020  26.9535

     occupation numbers 
     1.0000   1.0000   1.0000   1.0000   1.0000   1.0000   1.0000   1.0000
     1.0000   1.0000   1.0000   1.0000   1.0000   1.0000   1.0000   1.0000
     1.0000   1.0000   0.3718   0.0000   0.0000   0.0000   0.0000   0.0000
     0.0000   0.0000   0.0000   0.0000

          k = 0.6000 0.0000 0.8000 (  2540 PWs)   bands (ev):

   -91.2358 -51.6279 -51.6276 -51.6274   6.7641   7.2113   7.5592   7.6368
     7.8494   8.6299   9.0267   9.2060   9.8229   9.9072  10.1049  10.1826
    10.4517  11.1765  11.4068  11.5513  12.3654  12.6245  14.6794  20.0469
    23.1882  23.4799  24.3783  26.1189

     occupation numbers 
     1.0000   1.0000   1.0000   1.0000   1.0000   1.0000   1.0000   1.0000
     1.0000   1.0000   1.0000   1.0000   1.0000   1.0000   1.0000   1.0000
     1.0000   1.0000   0.8724   0.0311   0.0000   0.0000   0.0000   0.0000
     0.0000   0.0000   0.0000   0.0000

          k =-0.2000-1.0000 0.0000 (  2522 PWs)   bands (ev):

   -91.2356 -51.6279 -51.6274 -51.6274   6.7657   7.3286   7.4850   7.6066
     7.9134   8.3996   9.0997   9.1360   9.7585   9.9280  10.1815  10.4083
    10.5949  11.3878  11.5405  11.9413  12.0316  13.1833  13.3410  19.5512
    19.9193  25.9478  27.0655  28.1199

     occupation numbers 
     1.0000   1.0000   1.0000   1.0000   1.0000   1.0000   1.0000   1.0000
     1.0000   1.0000   1.0000   1.0000   1.0000   1.0000   1.0000   1.0000
     1.0000   0.9373   0.0505   0.0000   0.0000   0.0000   0.0000   0.0000
     0.0000   0.0000   0.0000   0.0000

          k = 0.6000-0.2000 1.0000 (  2525 PWs)   bands (ev):

   -91.2356 -51.6277 -51.6274 -51.6274   6.7277   7.0017   7.5544   7.6794
     7.9011   8.5584   8.9410   9.3951   9.7631   9.7885  10.1165  10.2283
    10.4726  11.1749  11.3227  11.5576  12.5467  13.1809  14.4645  21.2669
    21.4953  22.6117  25.4904  26.3748

     occupation numbers 
     1.0000   1.0000   1.0000   1.0000   1.0000   1.0000   1.0000   1.0000
     1.0000   1.0000   1.0000   1.0000   1.0000   1.0000   1.0000   1.0000
     1.0000   1.0000   0.9980   0.0230   0.0000   0.0000   0.0000   0.0000
     0.0000   0.0000   0.0000   0.0000

          k = 0.5000-0.1000 0.9000 (  2530 PWs)   bands (ev):

   -91.2357 -51.6278 -51.6275 -51.6274   6.8930   7.0440   7.5544   7.6384
     7.9258   8.6434   9.0778   9.2196   9.7940   9.8520  10.1016  10.1716
    10.4275  11.2385  11.5162  11.7479  11.9523  13.0279  13.9962  21.4055
    22.0794  23.5083  23.5355  26.8257

     occupation numbers 
     1.0000   1.0000   1.0000   1.0000   1.0000   1.0000   1.0000   1.0000
     1.0000   1.0000   1.0000   1.0000   1.0000   1.0000   1.0000   1.0000
     1.0000   1.0000   0.1282   0.0000   0.0000   0.0000   0.0000   0.0000
     0.0000   0.0000   0.0000   0.0000

          k =-0.4000-1.0000 0.0000 (  2528 PWs)   bands (ev):

   -91.2357 -51.6278 -51.6274 -51.6274   6.9072   7.1485   7.4882   7.6145
     7.9516   8.8277   8.9032   9.1785   9.7650  10.0535  10.0885  10.1459
    10.4349  11.2984  11.6215  11.8020  12.2927  12.7309  13.2596  21.1985
    21.6937  23.4133  24.2330  27.7307

     occupation numbers 
     1.0000   1.0000   1.0000   1.0000   1.0000   1.0000   1.0000   1.0000
     1.0000   1.0000   1.0000   1.0000   1.0000   1.0000   1.0000   1.0000
     1.0000   0.9997   0.0004   0.0000   0.0000   0.0000   0.0000   0.0000
     0.0000   0.0000   0.0000   0.0000

     the Fermi energy is    11.4615 ev

!    total energy              =   -1389.45871906 Ry

     total all-electron energy =    -43178.958500 Ry
     estimated scf accuracy    <       0.00000080 Ry
     smearing contrib. (-TS)   =      -0.00156600 Ry
     internal energy E=F+TS    =   -1389.45715306 Ry

     The total energy is F=E-TS. E is the sum of the following terms:
     one-electron contribution =    -290.95649528 Ry
     hartree contribution      =     181.66582538 Ry
     xc contribution           =    -102.73388042 Ry
     ewald contribution        =    -311.79126866 Ry
     one-center paw contrib.   =    -865.64133409 Ry
      -> PAW hartree energy AE =     419.55308177 Ry
      -> PAW hartree energy PS =    -417.13012059 Ry
      -> PAW xc energy AE      =    -969.19729263 Ry
      -> PAW xc energy PS      =     101.13299736 Ry
      -> total E_H with PAW    =     184.08878656 Ry
      -> total E_XC with PAW   =    -970.79817569 Ry

     convergence has been achieved in  13 iterations

     Writing output data file ././cunipt.save/

     init_run     :      3.33s CPU      3.41s WALL (       1 calls)
     electrons    :    111.17s CPU    112.27s WALL (       1 calls)

     Called by init_run:
     wfcinit      :      2.25s CPU      2.27s WALL (       1 calls)
     wfcinit:atom :      0.02s CPU      0.02s WALL (      47 calls)
     wfcinit:wfcr :      2.07s CPU      2.09s WALL (      47 calls)
     potinit      :      0.34s CPU      0.35s WALL (       1 calls)
     hinit0       :      0.67s CPU      0.67s WALL (       1 calls)

     Called by electrons:
     c_bands      :     93.23s CPU     93.22s WALL (      13 calls)
     sum_band     :     12.91s CPU     13.50s WALL (      13 calls)
     v_of_rho     :      0.25s CPU      0.26s WALL (      14 calls)
     v_h          :      0.01s CPU      0.01s WALL (      14 calls)
     v_xc         :      0.24s CPU      0.24s WALL (      14 calls)
     newd         :      0.69s CPU      1.25s WALL (      14 calls)
     PAW_pot      :      4.41s CPU      4.42s WALL (      14 calls)
     mix_rho      :      0.04s CPU      0.04s WALL (      13 calls)

     Called by c_bands:
     init_us_2    :      0.95s CPU      0.95s WALL (    1269 calls)
     cegterg      :     89.89s CPU     89.87s WALL (     611 calls)

     Called by sum_band:
     sum_band:wei :      0.01s CPU      0.01s WALL (      13 calls)
     sum_band:loo :     12.16s CPU     12.16s WALL (      13 calls)
     sum_band:buf :      0.07s CPU      0.07s WALL (     611 calls)
     sum_band:ini :      0.45s CPU      0.46s WALL (     611 calls)
     sum_band:cal :      2.67s CPU      2.66s WALL (     611 calls)
     sum_band:bec :      0.02s CPU      0.02s WALL (     611 calls)
     addusdens    :      0.71s CPU      1.30s WALL (      13 calls)
     addusd:skk   :      0.00s CPU      0.00s WALL (      39 calls)
     addusd:dgemm :      0.17s CPU      0.70s WALL (      39 calls)
     addusd:qvan2 :      0.48s CPU      0.48s WALL (      39 calls)

     Called by *egterg:
     cdiaghg      :      1.81s CPU      1.81s WALL (    2548 calls)
     cegterg:over :      7.99s CPU      7.99s WALL (    1937 calls)
     cegterg:upda :      5.11s CPU      5.11s WALL (    1937 calls)
     cegterg:last :     13.20s CPU     13.19s WALL (    1366 calls)
     h_psi        :     52.24s CPU     52.27s WALL (    2595 calls)
     s_psi        :      7.79s CPU      7.78s WALL (    2595 calls)
     g_psi        :      0.31s CPU      0.31s WALL (    1937 calls)

     Called by h_psi:
     h_psi:calbec :      7.18s CPU      7.17s WALL (    2595 calls)
     vloc_psi     :     37.05s CPU     37.08s WALL (    2595 calls)
     add_vuspsi   :      7.83s CPU      7.83s WALL (    2595 calls)

     General routines
     calbec       :      9.84s CPU      9.83s WALL (    3206 calls)
     fft          :      0.12s CPU      0.12s WALL (     154 calls)
     ffts         :      0.01s CPU      0.01s WALL (      13 calls)
     fftw         :     40.06s CPU     40.10s WALL (  107112 calls)

     Parallel routines

     PAW routines
     PAW_pot      :      4.41s CPU      4.42s WALL (      14 calls)
     PAW_symme    :      0.01s CPU      0.01s WALL (      27 calls)

     PWSCF        :   1m54.72s CPU   1m55.94s WALL


   This run was terminated on:  22: 3:11  13Sep2024            

=------------------------------------------------------------------------------=
   JOB DONE.
=------------------------------------------------------------------------------=
